@RELATION appendixE_03_resonance

@ATTRIBUTE omega_m_MHz NUMERIC
@ATTRIBUTE omega_a_MHz NUMERIC
@ATTRIBUTE sigma_ns NUMERIC
@ATTRIBUTE T_active_ns NUMERIC
@ATTRIBUTE T_total_ns NUMERIC
@ATTRIBUTE omega_r_MHz NUMERIC
@ATTRIBUTE omega_p_MHz NUMERIC
@ATTRIBUTE g_qr_MHz NUMERIC
@ATTRIBUTE J_MHz NUMERIC
@ATTRIBUTE detuning_MHz NUMERIC
@ATTRIBUTE leakage_final NUMERIC
@ATTRIBUTE min_leakage NUMERIC
@ATTRIBUTE min_leakage_time_ns NUMERIC

@DATA
564,128,5,34.5,54.5,7129,7111,120,28.8,0,0.000599796535,0.0002034005173,46.71428571
553.282314,110.7015274,7.044101674,30.77698804,58.95339474,7129,7111,120,28.8,-4.136899487,0.2093715733,0.2093715733,58.95339474
568.3441788,136.2760442,6.286229339,32.9035385,58.04845585,7129,7111,120,28.8,0.4123134076,0.009887249399,0.0006747361339,43.83250748
557.3649233,115.0814579,5.176664212,29.35113966,50.05779651,7129,7111,120,28.8,-0.3516112772,0.1304689407,0.1304689407,50.05779651
558.3684189,114.7149122,6.802996823,30.66833632,57.88032361,7129,7111,120,28.8,2.021925629,0.1317913869,0.1317913869,57.88032361
562.0882154,124.5134946,6.176581932,28.20799283,52.91432056,7129,7111,120,28.8,-0.3370638491,0.06473778022,0.06473778022,52.91432056
560.1544846,121.5273501,5.012296134,39.64490261,59.69408715,7129,7111,120,28.8,-1.218380909,0.004811461311,0.003933826292,49.94811373
570.3773405,142.7801953,3.629484228,36.32626565,50.84420256,7129,7111,120,28.8,-2.025514354,0.09474375399,0.006950630541,33.20437718
569.9567168,139.6218185,4.401428193,29.2512351,46.85694787,7129,7111,120,28.8,0.2916151421,0.004713650464,0.00034812451,37.29430545
574.2581154,147.0560525,4.934600412,32.85458485,52.5929865,7129,7111,120,28.8,1.460178223,0.0779285292,0.003524654002,34.34644016
562.9464488,127.7428093,4.067138864,30.1526208,46.42117626,7129,7111,120,28.8,-1.849911791,0.01771168506,0.01771168506,46.42117626
563.4981657,128.5729654,4.115453355,31.67838896,48.14020238,7129,7111,120,28.8,-1.576634012,0.007111710923,0.007111710923,48.14020238
557.2583039,113.6016405,5.93758725,30.2075628,53.9579118,7129,7111,120,28.8,0.9149673397,0.1388671481,0.1388671481,53.9579118
572.1944623,147.8112156,4.150418632,37.79020279,54.39187732,7129,7111,120,28.8,-3.42229099,0.1393914503,0.01699356954,32.19111107
571.6525445,139.1237749,5.191394174,37.61709904,58.38267573,7129,7111,120,28.8,4.181314153,0.09746126197,0.03051356353,36.93597852
568.5687085,136.8980275,6.125311758,31.64238341,56.14363044,7129,7111,120,28.8,0.2393895673,0.005470439196,0.0003397057128,43.5399583
567.0938255,129.6614131,7.363615426,31.5441886,60.9986503,7129,7111,120,28.8,4.526237814,0.05499842356,0.05497059952,58.50890947
569.8768612,137.2099317,4.995758733,29.39876898,49.38180391,7129,7111,120,28.8,2.543790653,0.01359743945,0.01247099553,41.31946858
561.0936095,125.7116495,7.018387756,27.50430077,55.57785179,7129,7111,120,28.8,-3.524430582,0.1004450597,0.1004450597,55.57785179
565.0917239,130.3578474,6.259525314,34.47756371,59.51566496,7129,7111,120,28.8,-0.1743996022,0.002085415349,0.0003106855927,48.5842163
558.2710952,117.7897314,4.182044862,31.37916971,48.10734916,7129,7111,120,28.8,-1.247541032,0.06297022726,0.06297022726,48.10734916
558.5206956,119.1547446,5.326503151,27.62395156,48.92996416,7129,7111,120,28.8,-2.113353376,0.1297113879,0.1297113879,48.92996416
567.2233139,135.8823429,6.752830096,30.72737604,57.73869642,7129,7111,120,28.8,-1.435715043,0.005094893359,0.004720696621,49.49031122
562.3692733,123.9656766,4.140978327,44.83283824,61.39675154,7129,7111,120,28.8,0.7728699285,0.02910396474,0.001580043564,43.85482253
566.3041413,132.1426928,6.121455212,27.71025318,52.19607403,7129,7111,120,28.8,0.4655898211,0.0211613153,0.0211613153,52.19607403
557.4147236,117.5834402,5.715533462,36.9276594,59.78979325,7129,7111,120,28.8,-2.753992944,0.03375720228,0.03375720228,59.78979325
569.3846142,138.6072533,4.715975486,39.59336045,58.4572624,7129,7111,120,28.8,0.1619750725,0.08127163215,0.0002558838526,36.98316601
564.7411529,128.2879162,4.170307323,44.82529054,61.50651983,7129,7111,120,28.8,1.19438948,0.05361678035,0.003280149462,41.42275825
563.6847581,129.7920886,3.868757159,26.60985339,42.08488203,7129,7111,120,28.8,-2.422572378,0.04589642893,0.04589642893,42.08488203
575.4569779,148.3891189,6.03380173,39.89275027,64.02795719,7129,7111,120,28.8,2.524836919,0.1313387601,0.01083529321,36.58740411
561.6354807,125.6442197,4.093592257,32.11134808,48.48571711,7129,7111,120,28.8,-2.3732583,0.01869474747,0.01869474747,48.48571711
556.5778687,113.0281371,4.856853689,34.6296662,54.05708095,7129,7111,120,28.8,0.1276004119,0.06271296753,0.06271296753,54.05708095
568.4972049,138.9994227,3.811439447,30.26533759,45.51109537,7129,7111,120,28.8,-2.005013006,0.01725270686,0.006962672614,35.29431886
569.2761807,140.2236397,3.897153273,36.75631707,52.34493016,7129,7111,120,28.8,-1.671278332,0.07850286136,0.004796430675,34.18444418
571.5824206,142.12109,4.818579439,37.14116867,56.41548642,7129,7111,120,28.8,1.043751287,0.08678202856,0.001987889649,35.69143019
568.4914119,135.3375719,5.168584887,31.98263486,52.65697441,7129,7111,120,28.8,1.64525194,0.01107499266,0.005424536253,40.83602097
557.0640617,115.4988339,7.301878738,36.54666361,65.75417856,7129,7111,120,28.8,-1.370710593,0.04006959197,0.04006959197,65.75417856
562.0040587,124.6406537,6.148746141,36.80050049,61.39548506,7129,7111,120,28.8,-0.6325362742,0.001250355167,0.001218711984,56.38360873
566.778033,135.5053045,6.101397282,35.39443658,59.80002571,7129,7111,120,28.8,-1.949238441,0.03167217409,0.007841340007,41.49389539
565.5217262,128.660035,6.143432162,35.85275318,60.42648183,7129,7111,120,28.8,2.383417523,0.01656658986,0.01307376872,48.09454676
557.2015223,112.5210143,6.084225516,30.38260622,54.71950828,7129,7111,120,28.8,1.882030328,0.1556338251,0.1556338251,54.71950828
561.7148273,124.5021268,4.822399013,27.65437648,46.94397253,7129,7111,120,28.8,-1.072472266,0.06617942413,0.06617942413,46.94397253
565.5622873,131.3586038,7.092606633,29.27454566,57.64497219,7129,7111,120,28.8,-0.2340292363,0.01415130801,0.01415130801,57.64497219
573.1140374,144.3344285,5.926693922,31.95434667,55.66112235,7129,7111,120,28.8,1.893646331,0.04643869386,0.00625309717,37.48606199
561.3105879,121.9468718,4.151855853,46.49412379,63.10154721,7129,7111,120,28.8,0.6743039782,0.02588289573,0.001408667561,45.07253372
565.5984312,129.5653781,3.977116956,35.20350787,51.11197569,7129,7111,120,28.8,1.631484195,0.01206026358,0.005657178291,40.68096025
561.8415575,123.4157629,5.959580291,39.78536848,63.62368965,7129,7111,120,28.8,0.2673519884,0.003255871821,0.0003787673633,50.63926319
562.3078219,125.3464524,5.813630445,45.44846564,68.70298742,7129,7111,120,28.8,-0.7308085568,0.03431382655,0.001627182194,46.26935887
570.1451666,139.1902173,6.468967606,29.99692842,55.87279885,7129,7111,120,28.8,1.100115844,0.005244551611,0.002616739123,44.47018684
571.2936794,143.3182093,3.770283783,27.45502479,42.53615992,7129,7111,120,28.8,-0.7308504201,0.006077377644,0.001049306626,33.85531095
569.5750703,138.9594254,5.066521475,29.54646766,49.81255356,7129,7111,120,28.8,0.1907150727,0.003291647813,0.0002787258252,39.64672631
568.5919289,135.1612523,6.000182306,30.02507184,54.02580106,7129,7111,120,28.8,2.022605489,0.009127404306,0.00910412146,50.71809896
564.7829194,130.5173063,6.001478634,29.41854544,53.42445998,7129,7111,120,28.8,-0.951467474,0.01371651181,0.01371651181,53.42445998
563.7249832,126.2550546,3.971800193,31.65637152,47.54357229,7129,7111,120,28.8,1.194911777,0.009769200748,0.009769200748,47.54357229
561.1601629,125.0734258,6.164279919,34.2536156,58.91073528,7129,7111,120,28.8,-2.75310008,0.02192650886,0.02192650886,58.91073528
566.2658041,130.5274601,4.004237931,38.09399093,54.11094265,7129,7111,120,28.8,2.004148053,0.03375657207,0.008287387484,39.75497828
570.9333646,142.4498657,7.083869299,39.56000701,67.89548421,7129,7111,120,28.8,-0.5831365503,0.09021971791,0.001214018905,40.18304167
559.953457,120.1783126,5.964549709,27.85447233,51.71267116,7129,7111,120,28.8,-0.2713987206,0.111364085,0.111364085,51.71267116
566.7867133,136.2791814,6.991839582,40.05239777,68.0197561,7129,7111,120,28.8,-2.705754877,0.07182085449,0.01457110499,43.03290692
572.2860461,143.5317295,6.953991757,30.67082936,58.48679639,7129,7111,120,28.8,1.040362655,0.01935003486,0.00220746936,41.77628313
558.0233024,116.8866074,6.921057301,31.84737181,59.53160101,7129,7111,120,28.8,-0.8400026848,0.08103206275,0.08103206275,59.53160101
569.5886943,137.4519181,5.829765769,36.48254328,59.80160636,7129,7111,120,28.8,1.72547057,0.04984342855,0.005753425323,40.27455122
555.6667748,112.7380032,6.06184321,36.54393615,60.79130899,7129,7111,120,28.8,-1.404453561,0.05453884343,0.05453884343,60.79130899
565.6811675,130.7040621,5.026775235,30.83875956,50.9458605,7129,7111,120,28.8,0.6582729198,0.002837295586,0.002837295586,50.9458605
570.0961129,141.2369928,5.816994849,27.53102898,50.79900838,7129,7111,120,28.8,-1.044767078,0.002402849671,0.00233845841,45.6154361
555.9542073,110.496496,5.957211233,32.56864807,56.397493,7129,7111,120,28.8,1.411918623,0.1341904797,0.1341904797,56.397493
556.2218166,112.1362693,4.832642845,44.73826841,64.06883978,7129,7111,120,28.8,0.3073640048,0.002777214932,0.002777214932,64.06883978
562.1455748,124.9456299,6.887361294,36.91719882,64.466644,7129,7111,120,28.8,-0.6544802261,0.001337923583,0.001324454261,59.20406082
568.6566315,137.0100782,6.042758889,30.72370207,54.89473763,7129,7111,120,28.8,0.3031846992,0.002494237341,0.0004083563395,43.69172995
563.2129377,125.4569451,5.97458811,39.96552613,63.86387857,7129,7111,120,28.8,0.9689303975,0.01106747846,0.002416725843,48.22374504
559.0764003,121.5974063,6.922569934,29.78096434,57.47124408,7129,7111,120,28.8,-3.444605804,0.09590369758,0.09590369758,57.47124408
567.8081139,135.9811546,5.74579355,39.53447897,62.51765317,7129,7111,120,28.8,-0.3649267022,0.05977047458,0.0005823070544,40.82785513
558.3526264,116.4723203,5.885217519,29.58278765,53.12365772,7129,7111,120,28.8,0.2329324981,0.1156832984,0.1156832984,53.12365772
561.0435143,120.1978566,5.304663609,37.42199073,58.64064517,7129,7111,120,28.8,1.889171957,0.01205289286,0.01205289286,58.64064517
571.2531479,141.2533761,3.653685011,33.85510887,48.46984892,7129,7111,120,28.8,1.252919801,0.0567447561,0.002765561004,33.63214006
562.8542314,126.2291187,4.019884538,30.93242305,47.0119612,7129,7111,120,28.8,-0.5206559503,0.01162139056,0.01162139056,47.0119612
569.5210543,141.3129895,5.917429907,29.42189468,53.09161431,7129,7111,120,28.8,-2.270880926,0.01612596342,0.009686326792,40.08958631
558.9983905,119.6065117,7.117996436,34.78211759,63.25410333,7129,7111,120,28.8,-1.609730664,0.03075764968,0.03075764968,63.25410333
571.4195145,144.1055525,6.089962462,33.48128991,57.84113976,7129,7111,120,28.8,-1.266523437,0.05674880886,0.002986490916,37.77380556
573.6474647,148.0706173,6.067890759,30.51630953,54.78787256,7129,7111,120,28.8,-0.7756878005,0.04455590342,0.001167329849,36.89795499
561.4151411,121.145891,7.245927721,32.62258002,61.6062909,7129,7111,120,28.8,1.684391132,0.04314403027,0.04314403027,61.6062909
573.9691416,145.6355538,6.017378644,31.53926316,55.60877774,7129,7111,120,28.8,2.302729421,0.05172473111,0.008901104379,37.4508095
573.7015792,146.1590259,7.129924802,30.17430798,58.69400718,7129,7111,120,28.8,1.244132393,0.0256676858,0.002985041541,40.72645396
554.498398,112.5271834,4.129652002,27.61852252,44.13713053,7129,7111,120,28.8,-3.530387513,0.2128910221,0.2128910221,44.13713053
553.3713599,110.5476371,4.867513438,28.43567847,47.90573223,7129,7111,120,28.8,-3.804917231,0.2312787842,0.2312787842,47.90573223
562.9538285,124.8000293,5.16152076,39.53714511,60.18322814,7129,7111,120,28.8,1.107627821,0.009881872828,0.003063388225,46.67270754
575.3819171,147.175912,3.858794559,31.86170898,47.29688722,7129,7111,120,28.8,3.587922152,0.09033496515,0.01869244592,31.85300568
562.8980437,123.8913565,3.859178787,44.13698391,59.57369906,7129,7111,120,28.8,1.904730858,0.03318034804,0.008562750247,43.76843196
567.2252567,132.6770885,4.231302287,44.56623737,61.49144651,7129,7111,120,28.8,1.773424819,0.07890029312,0.00629025762,38.90275188
554.7568958,111.728367,5.196220261,44.66404337,65.44892441,7129,7111,120,28.8,-2.214575367,0.0185535555,0.0185535555,65.44892441
574.5014765,148.8842648,7.159577041,32.90063118,61.53893934,7129,7111,120,28.8,0.118688176,0.06820129344,0.0002250321878,38.93279836
572.5922064,147.1318451,4.275119612,29.75337953,46.85385797,7129,7111,120,28.8,-1.947432273,0.04708013896,0.005819074895,32.51084023
569.6870287,137.7477408,5.779491579,31.8101267,54.92809302,7129,7111,120,28.8,1.626316658,0.01510063863,0.005267242945,41.47631514
558.7515898,117.0291497,6.230089409,45.35483252,70.27519016,7129,7111,120,28.8,0.4740298638,0.002592613638,0.0008539560251,57.36750217
565.1311026,129.6110204,5.091175853,32.51502983,52.87973324,7129,7111,120,28.8,0.6511848503,0.001238538764,0.001238538764,52.87973324
565.8126633,133.1466575,5.786907066,30.92023123,54.0678595,7129,7111,120,28.8,-1.521330924,0.005376559869,0.005376559869,54.0678595
569.0872624,139.3332207,4.72040413,39.33723621,58.21885273,7129,7111,120,28.8,-1.158695881,0.08614437099,0.002605395609,36.8323354
574.2557016,149.0884429,6.540437757,34.87608659,61.03783761,7129,7111,120,28.8,-0.5770397628,0.09751478927,0.0008746923635,37.37010466
562.9256777,127.5574542,3.985073213,39.23178311,55.17207596,7129,7111,120,28.8,-1.706098813,0.02442348569,0.00648583552,41.66054715
559.2561719,119.8893383,4.03997807,40.70566358,56.86557586,7129,7111,120,28.8,-1.376994568,0.005934745029,0.00498047036,48.74192217
562.4628039,123.3126643,7.224425772,39.61850769,68.51621077,7129,7111,120,28.8,1.612943495,0.008294692217,0.006993168135,55.93160063
572.1569624,141.2803783,7.021951795,46.12102464,74.20883182,7129,7111,120,28.8,3.033546477,0.1084082218,0.01679618021,40.8905808
564.9827692,131.271358,5.763663817,35.06415827,58.11881354,7129,7111,120,28.8,-1.305819692,0.01069356869,0.003903546311,43.88563471
573.8737245,148.6641837,4.035300852,45.00707758,61.14828099,7129,7111,120,28.8,-0.9167346857,0.1077144754,0.001598285902,31.19810254
571.8658515,142.8227623,5.913428108,36.79802952,60.45174195,7129,7111,120,28.8,0.9089405861,0.08118916256,0.001808642916,38.2449796
556.239085,111.9866117,7.117703017,36.90992299,65.38073506,7129,7111,120,28.8,0.4915582486,0.05845684731,0.05845684731,65.38073506
569.6099657,141.4068532,5.072064954,31.51807545,51.80633526,7129,7111,120,28.8,-2.186921815,0.0339239615,0.00826487763,37.00452519
555.9641373,110.2291019,5.312079392,31.85185334,53.10017091,7129,7111,120,28.8,1.699172728,0.1472471297,0.1472471297,53.10017091
564.3554727,127.0781047,6.22479013,30.00552804,54.90468856,7129,7111,120,28.8,1.632840817,0.0288182328,0.0288182328,54.90468856
565.0734693,128.7927188,7.100704576,32.19884951,60.60166781,7129,7111,120,28.8,1.354219872,0.008962721865,0.008962721865,60.60166781
560.5287592,120.6960684,3.897604065,37.86784257,53.45825883,7129,7111,120,28.8,0.3614499832,0.0008022682728,0.0008022682728,53.45825883
563.7239399,129.9503096,5.197076439,39.95487941,60.74318516,7129,7111,120,28.8,-2.50242976,0.04360080821,0.0131961566,42.14833256
574.9490487,146.6465109,6.744556647,34.14295892,61.12118551,7129,7111,120,28.8,3.251586377,0.08995145227,0.0177854916,38.66850512
569.5530891,135.6578713,4.18694268,31.49920002,48.24697074,7129,7111,120,28.8,3.448306964,0.02955618225,0.02166669266,37.41601813
573.6376824,146.2009995,3.86074591,40.30174473,55.74472837,7129,7111,120,28.8,1.074365357,0.1268771972,0.001910868237,31.8541305
569.5749804,140.7847043,4.947305018,38.83731729,58.62653736,7129,7111,120,28.8,-1.634743537,0.09265264948,0.005141205662,35.89379838
571.9240092,142.9836289,5.732287611,32.73994043,55.66909088,7129,7111,120,28.8,0.8643894716,0.04298060095,0.001537960403,37.49142855
561.2140249,120.8013278,3.895818643,30.40607727,45.98935184,7129,7111,120,28.8,1.62672207,0.05222692768,0.05222692768,45.98935184
568.0280651,136.1562081,4.999736214,45.5569801,65.55592495,7129,7111,120,28.8,-0.1000778264,0.09067562959,0.000244981108,38.79840456
567.5768742,135.3997209,6.06826283,39.55256597,63.82561729,7129,7111,120,28.8,-0.2459723969,0.0545468114,0.0003363613387,41.68203578
573.2802824,146.6442138,5.976304769,29.69461157,53.59983065,7129,7111,120,28.8,-0.08364892977,0.02704990122,0.0003039857262,37.19171922
567.7705656,133.414634,3.989276296,31.09538208,47.05248727,7129,7111,120,28.8,2.126497185,0.0101174498,0.008923428263,39.37044853
557.834592,115.8081369,4.061188641,40.70515885,56.94991342,7129,7111,120,28.8,-0.1389528126,0.002580068131,0.002580068131,56.94991342
566.7166985,130.0744774,6.138810043,33.99908661,58.55432679,7129,7111,120,28.8,3.358919718,0.02730886656,0.02522422783,47.79945044
559.3532984,119.2355014,7.184847381,32.62767034,61.36705987,7129,7111,120,28.8,-0.5289047022,0.05006413078,0.05006413078,61.36705987
568.6458055,137.8454654,4.02746103,44.94931373,61.05915785,7129,7111,120,28.8,-0.5538543866,0.09884436445,0.0009761196527,36.13705261
572.404884,145.9049061,4.850720932,40.26448092,59.66736465,7129,7111,120,28.8,-1.095138142,0.1228421491,0.002085366117,34.09563694
573.0527801,149.1947188,6.916365645,34.74618429,62.41164687,7129,7111,120,28.8,-3.089158574,0.1075998257,0.01575996452,38.21121237
571.5037318,143.2417608,7.139339569,30.04963731,58.60699559,7129,7111,120,28.8,-0.2342973291,0.01061725748,0.0003106769549,43.05820084
574.2067802,147.8212596,5.689235803,32.2978652,55.05480842,7129,7111,120,28.8,0.5923006864,0.06765008186,0.0008634880147,35.9541606
570.3524146,140.9513567,4.24369911,29.45385868,46.42865512,7129,7111,120,28.8,-0.2465273625,0.009680667721,0.0003533643869,36.00589581
557.5382659,112.6008756,6.852321374,33.90964497,61.31893047,7129,7111,120,28.8,2.475656153,0.1053573006,0.1053573006,61.31893047
565.8809537,132.5588937,5.006233451,36.35991055,56.38484435,7129,7111,120,28.8,-0.7969862509,0.02212315721,0.001683391791,41.42559993
557.5874866,113.7092029,4.985705764,40.31454818,60.25737123,7129,7111,120,28.8,1.465770276,0.01730362593,0.01730362593,60.25737123
555.6202033,111.7796389,4.834918802,32.87368985,52.21336506,7129,7111,120,28.8,-0.5392322061,0.1014749254,0.1014749254,52.21336506
565.0636646,131.8925128,4.142710337,37.23970548,53.81054683,7129,7111,120,28.8,-1.765183648,0.03266885972,0.006514652058,39.53427931
568.1869957,134.1782809,6.9821639,27.3592293,55.2878849,7129,7111,120,28.8,2.195710581,0.03002056862,0.03002056862,55.2878849
560.3709118,120.5001898,5.019515021,26.95337381,47.03143389,7129,7111,120,28.8,0.2416336953,0.1188747965,0.1188747965,47.03143389
561.3493191,122.5188795,6.826558463,29.8171821,57.12341595,7129,7111,120,28.8,0.1797587384,0.06002294636,0.06002294636,57.12341595
570.6637078,141.5919628,7.157536247,39.73018128,68.36032626,7129,7111,120,28.8,-0.2645472179,0.08557053164,0.0008682724481,41.85326098
561.0965042,124.400451,4.130354319,29.19117242,45.7125897,7129,7111,120,28.8,-2.207442547,0.0472649377,0.0472649377,45.7125897
555.6392933,110.1302267,5.047958104,36.44160299,56.63343541,7129,7111,120,28.8,1.148360037,0.07212830629,0.07212830629,56.63343541
570.5820846,139.4024886,3.648984228,31.47701883,46.07295574,7129,7111,120,28.8,1.761680538,0.0264280862,0.005538220644,34.78978291
564.9086736,127.0763535,6.249463787,36.69611915,61.6939743,7129,7111,120,28.8,2.740993744,0.02066681969,0.01767565938,49.1033673
570.3279238,140.654011,6.694238082,37.47033342,64.24728575,7129,7111,120,28.8,0.001836645701,0.06643918521,0.0002003707953,40.646242
558.0362091,117.9103944,7.070112023,27.67284405,55.95329214,7129,7111,120,28.8,-1.837976238,0.1597597182,0.1597597182,55.95329214
557.9356872,114.5776407,6.9046706,38.05672215,65.67540455,7129,7111,120,28.8,1.293733626,0.03096543159,0.03096543159,65.67540455
562.1943443,125.5941768,5.791986147,34.11914661,57.2870912,7129,7111,120,28.8,-1.205488096,0.005688292006,0.005688292006,57.2870912
555.3682424,111.6232019,4.333788972,45.42982439,62.76498028,7129,7111,120,28.8,-0.8867171299,0.004312205535,0.004312205535,62.76498028
571.9199463,142.9937859,5.29131698,31.99022701,53.15549493,7129,7111,120,28.8,0.8461067235,0.03782146068,0.001417665317,36.88340464
556.3798283,114.2818993,3.724280728,27.82811349,42.7252364,7129,7111,120,28.8,-1.522242669,0.1657401281,0.1657401281,42.7252364
557.0816724,111.8413497,6.001060895,36.8203948,60.82463838,7129,7111,120,28.8,2.321995023,0.06789060129,0.06789060129,60.82463838
567.8356925,137.5743921,3.653587,34.55527158,49.16961958,7129,7111,120,28.8,-1.903007126,0.04479208448,0.00639952099,35.12115684
564.5136662,130.0797328,4.723138544,28.93566421,47.82821838,7129,7111,120,28.8,-1.052400478,0.01488119523,0.01488119523,47.82821838
572.9480588,143.4037938,4.927195806,36.42146158,56.1302448,7129,7111,120,28.8,2.492323775,0.09644867773,0.01019347434,35.5109712
562.9879317,123.2084214,3.940250959,35.02581188,50.78681572,7129,7111,120,28.8,2.767441915,0.01964266957,0.01964266957,50.78681572
557.1014543,111.0029711,5.108458242,29.37453602,49.80836898,7129,7111,120,28.8,3.19993753,0.1995978067,0.1995978067,49.80836898
570.6438944,139.9988403,6.853931838,26.89601649,54.31174384,7129,7111,120,28.8,1.288948436,0.007402391121,0.007402391121,54.31174384
565.0715543,130.3661975,6.932236071,31.99367813,59.72262241,7129,7111,120,28.8,-0.2230889938,0.002021418656,0.002021418656,59.72262241
565.9685682,129.3991032,7.207895579,30.25904229,59.09062461,7129,7111,120,28.8,2.538033093,0.02970909465,0.02970909465,59.09062461
566.5813738,133.0386604,3.816795073,40.60684038,55.87402067,7129,7111,120,28.8,0.1240871072,0.05675594138,0.0002291111289,37.62944249
570.6635694,139.4532686,3.981390148,39.61727783,55.54283842,7129,7111,120,28.8,1.873870276,0.09486768373,0.006168947665,35.13934676
573.296211,145.8359825,6.057383793,40.49606817,64.72560334,7129,7111,120,28.8,0.7564394528,0.1169120887,0.001130016688,36.98605905
556.8538656,114.9909721,5.04691528,39.21582709,59.40348821,7129,7111,120,28.8,-1.283240943,0.01574909767,0.01574909767,59.40348821
566.6219824,132.9988829,7.232308484,30.34576307,59.27499701,7129,7111,120,28.8,0.2450820031,0.003438045344,0.003438045344,59.27499701
574.9313972,149.7989811,5.213331975,35.74453741,56.59786531,7129,7111,120,28.8,0.06381319723,0.1196596126,0.0003660520778,33.4966958
556.8176729,113.5160191,5.070162622,40.32227451,60.602925,7129,7111,120,28.8,0.119326644,0.01225522355,0.01225522355,60.602925
572.9626672,147.5052086,3.813697229,45.13854435,60.39333326,7129,7111,120,28.8,-1.579874135,0.1094386243,0.004466016327,30.81292514
572.7864395,144.4317609,3.859615277,36.76883455,52.20729566,7129,7111,120,28.8,1.141117981,0.103796494,0.002481807286,33.02910541
566.0529227,130.2707201,5.093340301,45.30498622,65.67834742,7129,7111,120,28.8,1.835125197,0.06734347763,0.007229891282,41.55160755
570.8164285,140.8867668,5.097561669,30.42847962,50.8187263,7129,7111,120,28.8,0.7460901351,0.01447679375,0.001301975899,37.33620708
562.029894,121.1908074,4.256421715,27.86948461,44.89517147,7129,7111,120,28.8,2.868980532,0.1010652668,0.1010652668,44.89517147
554.6563916,110.8639459,5.92362103,36.65635335,60.35083747,7129,7111,120,28.8,-1.551162789,0.07025522799,0.07025522799,60.35083747
571.9517132,146.2590464,5.054386769,39.87604865,60.09359573,7129,7111,120,28.8,-2.355619957,0.1275828506,0.008745366231,34.33919756
563.3875488,128.034629,6.891127855,34.50302521,62.06753663,7129,7111,120,28.8,-1.259531289,0.00425315904,0.00425315904,62.06753663
561.6991092,125.661399,4.821363417,45.07994109,64.36539476,7129,7111,120,28.8,-2.263180598,0.04699216331,0.01177546206,44.66170249
560.0056171,119.0111979,4.675023365,36.29263785,54.99273131,7129,7111,120,28.8,1.000036311,0.01150176539,0.01150176539,54.99273131
560.5364609,119.9113723,4.012520052,27.68899291,43.73907312,7129,7111,120,28.8,1.161549541,0.1036103215,0.1036103215,43.73907312
556.2832929,110.3239024,4.931808932,39.59682804,59.32406377,7129,7111,120,28.8,2.242683409,0.04873525701,0.04873525701,59.32406377
558.5970764,118.8353003,4.722467407,36.29576324,55.18563287,7129,7111,120,28.8,-1.641147504,0.01648274256,0.01648274256,55.18563287
576.4636184,148.8166367,5.190309165,37.12555352,57.88679018,7129,7111,120,28.8,4.110600032,0.1429868954,0.02524134321,34.25952888
573.6511993,147.7451179,5.861859622,45.96530344,69.41274192,7129,7111,120,28.8,-0.44271928,0.1023053841,0.0009536146247,35.41466425
557.4137082,114.2177582,4.88407676,28.07475143,47.61105847,7129,7111,120,28.8,0.6096583171,0.1673744661,0.1673744661,47.61105847
556.4440887,112.6438012,6.138582387,28.983972,53.53830155,7129,7111,120,28.8,0.2443762167,0.1783877377,0.1783877377,53.53830155
563.554181,123.4630757,7.202732927,36.29587651,65.10680822,7129,7111,120,28.8,3.645286352,0.03728032842,0.03725461391,61.1206771
554.8187781,110.9368262,5.278759653,39.70640287,60.82144148,7129,7111,120,28.8,-1.2992701,0.03562427391,0.03562427391,60.82144148
555.8011293,112.8884995,5.618283856,39.920784,62.39391942,7129,7111,120,28.8,-1.28624094,0.02341843261,0.02341843261,62.39391942
554.6219757,110.3716157,7.377284577,27.39512786,56.90426617,7129,7111,120,28.8,-1.127664333,0.2670074448,0.2670074448,56.90426617
570.5023634,142.2991436,4.420308489,34.66608793,52.34732188,7129,7111,120,28.8,-1.29441676,0.06833086565,0.003310068577,34.18600613
565.8574762,132.3993241,5.817786424,45.72647331,68.99761901,7129,7111,120,28.8,-0.6843717778,0.07234695328,0.001175119939,42.24344021
572.1628145,144.2132962,7.14994919,45.77710506,74.37690182,7129,7111,120,28.8,0.1123328242,0.103207485,0.0008621091735,39.46529484
557.1946247,112.4993219,4.846447803,32.05133622,51.43712743,7129,7111,120,28.8,1.889927441,0.114141187,0.114141187,51.43712743
555.1266073,111.8332034,6.81158102,28.72617861,55.97250269,7129,7111,120,28.8,-1.579988765,0.2075896821,0.2075896821,55.97250269
565.4867409,129.9332954,6.896633407,29.96142416,57.54795779,7129,7111,120,28.8,1.040186314,0.0158159158,0.0158159158,57.54795779
567.1443722,136.0188077,4.019435461,39.83984804,55.91758988,7129,7111,120,28.8,-1.730063336,0.07471636108,0.005528070573,36.51760972
564.6541407,128.68983,7.20427079,27.99740945,56.81449261,7129,7111,120,28.8,0.6184514068,0.04488520189,0.04488520189,56.81449261
563.3894333,126.5745895,5.86639079,39.79902196,63.26458512,7129,7111,120,28.8,0.2042770955,0.01215600036,0.0003408069471,46.48010335
575.1626499,149.290873,5.661401211,44.80345466,67.44905951,7129,7111,120,28.8,1.034426747,0.1089773725,0.002343139592,34.41278546
561.1464295,122.0180229,6.897363398,30.39148746,57.98094106,7129,7111,120,28.8,0.2748360197,0.05604257887,0.05604257887,57.98094106
554.3386146,110.5434116,5.19935041,31.71302018,52.51042182,7129,7111,120,28.8,-1.866182436,0.1461834725,0.1461834725,52.51042182
571.1179428,143.4121468,3.956433752,39.5985788,55.42431381,7129,7111,120,28.8,-1.176261184,0.1135741874,0.002625564606,32.80214491
572.3243311,145.8739907,6.035021047,30.01790148,54.15798567,7129,7111,120,28.8,-1.225328593,0.0292603274,0.002788087835,37.57901046
555.6089608,117.0756526,6.620753124,40.12209418,66.60510667,7129,7111,120,28.8,-5.857730896,0.09645903799,0.09595328873,58.44937933
574.568542,148.698867,3.964024479,34.43346869,50.2895666,7129,7111,120,28.8,0.4382170217,0.1098208444,0.0009221867867,31.81584826
574.1562298,149.2465228,7.237632449,27.99222336,56.94275316,7129,7111,120,28.8,-0.9340631897,0.01550916297,0.001805918972,40.67339511
569.1980508,138.7961833,4.965923471,28.23141803,48.09511191,7129,7111,120,28.8,-0.4000816681,0.0005614282902,0.0005085693039,44.16898033
572.3986458,144.4137642,5.844009235,37.82958527,61.20562221,7129,7111,120,28.8,0.3835273941,0.09852069891,0.0007199666377,37.47282992
561.8523609,124.1704853,7.217572231,45.26691897,74.13720789,7129,7111,120,28.8,-0.4657634404,0.02269352113,0.0007479715031,51.44214425
575.5514927,147.3378693,4.109397096,31.91444693,48.35203532,7129,7111,120,28.8,3.765116147,0.09274211099,0.0206765194,31.57683939
563.2338622,128.6033438,6.078365886,29.88000084,54.19346438,7129,7111,120,28.8,-2.135619304,0.02616173123,0.02616173123,54.19346438
567.7660242,137.838701,3.708774414,30.44945767,45.28455532,7129,7111,120,28.8,-2.30665258,0.01759611087,0.009438696172,35.11863474
575.9957623,147.4650699,5.881430079,29.56416751,53.08988782,7129,7111,120,28.8,4.526454661,0.06739217826,0.03246112893,36.83788135
572.0551513,144.7230209,3.964605225,32.48390363,48.34232453,7129,7111,120,28.8,-0.6127182233,0.06095733879,0.000862092526,32.5570757
571.2324222,141.5234847,4.132182006,32.7238,49.25252803,7129,7111,120,28.8,0.9413595846,0.04336347563,0.001741646307,34.17522353
572.0465672,144.824815,6.323732062,32.64843456,57.94336281,7129,7111,120,28.8,-0.7316806156,0.04832646514,0.001495120512,39.02308108
565.370789,132.6592603,4.953072128,30.04041352,49.85270204,7129,7111,120,28.8,-1.917682271,0.008916509554,0.008916509554,49.85270204
565.7263784,130.6208323,4.170914101,40.12069743,56.80435383,7129,7111,120,28.8,0.8319245196,0.03953671222,0.001679417887,39.41526593
567.7469655,135.6728964,7.162776809,31.86426776,60.515375,7129,7111,120,28.8,-0.1789653871,0.001862740106,0.0002904170767,48.16529847
572.5365565,145.7009604,6.181220881,27.47093674,52.19582027,7129,7111,120,28.8,-0.6278473416,0.005349384383,0.0008995859875,40.47839123
568.8993887,137.126533,4.811063687,34.24294968,53.48720443,7129,7111,120,28.8,0.6722444414,0.02913239177,0.001037080329,38.20514602
570.1705714,142.2324559,6.95209892,40.19284529,68.00124097,7129,7111,120,28.8,-1.891313177,0.09830866099,0.006631285321,40.24563241
572.2753091,144.0620924,6.994696645,45.2909229,73.26970948,7129,7111,120,28.8,0.4885257224,0.1052476147,0.001233620319,40.37310522
562.2331414,125.1976592,7.033526592,30.17247275,58.30657912,7129,7111,120,28.8,-0.731376377,0.03783244997,0.03783244997,58.30657912
557.6014321,116.4337767,6.496346088,44.84876901,70.83415336,7129,7111,120,28.8,-1.230912529,0.005028714676,0.004553793639,59.26939363
555.9056454,111.207462,5.024772469,31.64674065,51.74583053,7129,7111,120,28.8,0.6038287725,0.1313071273,0.1313071273,51.74583053
566.9367707,134.2799187,5.956300133,40.08328053,63.90848106,7129,7111,120,28.8,-0.4063773137,0.05236464479,0.0005373977969,41.7361509
556.2349024,112.5540653,6.954949311,45.38783644,73.20763368,7129,7111,120,28.8,-0.08426044695,0.002571882652,0.002571882652,73.20763368
569.6911017,138.2517797,7.236753172,32.50955433,61.45656702,7129,7111,120,28.8,1.130423788,0.01300950841,0.002805263018,45.15176352
560.3148863,118.8975233,7.051689523,34.58958063,62.79633872,7129,7111,120,28.8,1.732249366,0.03735227881,0.03735227881,62.79633872
560.849376,121.3782382,3.579272822,39.66416069,53.98125198,7129,7111,120,28.8,0.3205137425,0.001902202202,0.0004860111553,46.26964456
567.3324043,134.556074,6.664885099,32.34408408,59.00362448,7129,7111,120,28.8,0.1087345718,0.002276463145,0.0002282864772,46.96206846
558.7007122,117.2480616,4.374333109,44.397003,61.89433544,7129,7111,120,28.8,0.1533628625,0.002370815807,0.0003219259757,51.78913781
571.6910314,142.6767062,7.186889504,44.6404161,73.38797412,7129,7111,120,28.8,0.7053566059,0.1038161252,0.001250538931,40.43827145
567.7502174,136.8231101,4.980297653,39.27408792,59.19527853,7129,7111,120,28.8,-1.322675379,0.06979585461,0.003543308105,38.65814108
571.5463439,142.1686425,4.986613132,44.96451864,64.91097117,7129,7111,120,28.8,0.9240452625,0.1087728391,0.001675902236,35.76726983
553.9004936,110.8238039,6.888915469,37.01626741,64.57192929,7129,7111,120,28.8,-3.022816773,0.0906780549,0.0906780549,64.57192929
574.0034458,146.5137481,5.003402832,45.00676909,65.02038041,7129,7111,120,28.8,1.493143402,0.1116855383,0.003639593746,34.50061002
563.2121662,127.1789255,6.088728726,30.56119689,54.9161118,7129,7111,120,28.8,-0.7545931395,0.01792576671,0.01792576671,54.9161118
565.9212772,131.5960954,7.104060794,28.50769577,56.92393894,7129,7111,120,28.8,0.2464590985,0.02025415802,0.02025415802,56.92393894
559.5461761,118.4909759,5.023671637,30.6262451,50.72093165,7129,7111,120,28.8,0.6013762525,0.07027119132,0.07027119132,50.72093165
570.8828321,145.085887,7.021570218,44.41446078,72.50074165,7129,7111,120,28.8,-3.32022284,0.118447567,0.0196298639,39.94938825
557.1305125,115.6751588,6.09953699,29.21564441,53.61379237,7129,7111,120,28.8,-1.414133722,0.1384718377,0.1384718377,53.61379237
558.6964896,118.0309632,5.78946068,28.87648525,52.03432797,7129,7111,120,28.8,-0.6379839277,0.11242961,0.11242961,52.03432797
567.3379991,135.2328419,5.571752168,30.21340468,52.50041335,7129,7111,120,28.8,-0.5568437593,0.000915098663,0.0008497148253,47.14322831
568.1616685,139.3778154,3.886256629,35.67450264,51.21952915,7129,7111,120,28.8,-3.054478529,0.0748799751,0.01555005496,34.49478494
560.5956604,121.4918717,6.10520569,34.20377201,58.62459477,7129,7111,120,28.8,-0.3005509942,0.01494620565,0.01494620565,58.62459477
570.7954591,142.4080317,4.406318439,39.82520845,57.4504822,7129,7111,120,28.8,-0.8171133926,0.1067711202,0.001811065645,35.17376461
566.2987494,132.0555436,6.72928427,34.25017665,61.16731373,7129,7111,120,28.8,0.5419553015,0.004217933484,0.0008698054945,47.43587595
568.2077709,136.3005189,3.905194605,32.24639924,47.86717766,7129,7111,120,28.8,0.115022836,0.01280249364,0.0004031309973,36.14460354
556.0033804,113.7412813,3.811466524,37.53194937,52.77781547,7129,7111,120,28.8,-1.734520611,0.0322443619,0.0322443619,52.77781547
573.71707,147.4077334,6.023198002,39.61648624,63.70927825,7129,7111,120,28.8,0.02640658298,0.1207600994,0.0002043461277,36.40530186
556.2409504,112.6728233,4.18510358,45.36076753,62.10118185,7129,7111,120,28.8,-0.1909224038,0.0007807939104,0.0007807939104,62.10118185
559.6268498,117.3944551,3.938169677,45.06190052,60.81457923,7129,7111,120,28.8,1.859244532,0.01338287922,0.009252966508,49.64455448
573.3722024,147.4510287,5.948226025,45.7651415,69.55804561,7129,7111,120,28.8,-0.7066238427,0.1043198434,0.001951324041,35.48879878
559.466988,119.3481682,5.99134265,34.69029034,58.65566094,7129,7111,120,28.8,-0.4141923209,0.0216473943,0.0216473943,58.65566094
556.1131547,111.7590328,7.048669263,36.40120538,64.59588243,7129,7111,120,28.8,0.4672765219,0.06608438358,0.06608438358,64.59588243
566.9454606,134.5502227,5.401665423,28.50049295,50.10715464,7129,7111,120,28.8,-0.6593015896,0.00484746685,0.00484746685,50.10715464
562.2549691,123.2315071,5.338200041,34.47699908,55.82979924,7129,7111,120,28.8,1.278431157,0.009200889804,0.009200889804,55.82979924
558.7559377,118.702019,4.211352031,34.69556191,51.54097004,7129,7111,120,28.8,-1.190143699,0.02199761186,0.02199761186,51.54097004
564.7720367,128.9659464,3.836266742,30.21714353,45.56221049,7129,7111,120,28.8,0.5781270073,0.006691488461,0.006691488461,45.56221049
568.424776,139.3623354,7.353834015,36.24253554,65.6578716,7129,7111,120,28.8,-2.512783502,0.05633906985,0.01231751228,42.87861003
565.8236426,130.6711957,6.754905668,31.83923092,58.85885359,7129,7111,120,28.8,0.9760894629,0.003907276329,0.003907276329,58.85885359
573.2715291,145.2627233,6.767305099,28.50128702,55.57050742,7129,7111,120,28.8,1.280334817,0.01096086072,0.003245759152,41.96140356
567.2870047,133.9818933,6.081352331,32.05465535,56.38006468,7129,7111,120,28.8,0.5921160897,0.002349794542,0.000943802529,46.02454259
573.314416,148.6274127,4.96818723,27.44515814,47.31790706,7129,7111,120,28.8,-1.998580745,0.0250162456,0.006293933393,34.76417662
571.3480493,142.64023,7.07920575,29.29060149,57.60742449,7129,7111,120,28.8,0.05586853741,0.004737269154,0.0002653527968,44.67514553
572.9131602,145.1360577,7.215285556,44.39944371,73.26058594,7129,7111,120,28.8,0.6902626652,0.1083693468,0.001468433609,40.36807797
557.6683823,114.9542562,7.423964759,28.30830624,58.00416527,7129,7111,120,28.8,0.3825083873,0.1788697046,0.1788697046,58.00416527
561.673471,122.0572945,4.702832811,38.30455044,57.11588168,7129,7111,120,28.8,1.289647576,0.004538565877,0.004341623477,50.12210025
568.6983727,136.2528245,6.362415355,37.14205326,62.59171468,7129,7111,120,28.8,1.143921011,0.04219895242,0.002755914041,42.15360376
565.230045,132.1037441,4.285311402,28.73742986,45.87867547,7129,7111,120,28.8,-1.64365416,0.01145320426,0.01145320426,45.87867547
559.0318958,117.7020852,5.862367714,30.76931895,54.21878981,7129,7111,120,28.8,0.361706406,0.08090436094,0.08090436094,54.21878981
568.6175247,136.4256008,6.209582564,30.25250265,55.09083291,7129,7111,120,28.8,0.8094487112,0.001941057452,0.001579979522,47.22071392
562.8638321,127.5979535,5.437440302,36.7407385,58.49049971,7129,7111,120,28.8,-1.8702894,0.01273201982,0.008062080776,45.35997936
573.7115823,145.9960548,5.124885418,36.19119987,56.69074154,7129,7111,120,28.8,1.427109934,0.1033136042,0.003384905347,34.70861727
563.5375261,128.9689314,7.109610757,27.85208794,56.29053097,7129,7111,120,28.8,-1.893879224,0.05152551985,0.05152551985,56.29053097
576.2432274,147.449433,5.144570531,44.55213626,65.13041838,7129,7111,120,28.8,5.037021846,0.1286426537,0.03805651422,34.55899751
562.577248,126.856355,6.781649589,29.67015499,56.79675335,7129,7111,120,28.8,-1.701859018,0.03736951647,0.03736951647,56.79675335
557.4311668,116.4632518,4.727707295,45.22696056,64.13778974,7129,7111,120,28.8,-1.600918189,0.009176774087,0.007176056277,52.35737938
555.8955052,110.1495059,6.931872216,28.33502179,56.06251065,7129,7111,120,28.8,1.641504525,0.2425811574,0.2425811574,56.06251065
560.7908337,117.9288298,3.956993321,36.41840028,52.24637357,7129,7111,120,28.8,3.652837659,0.04345249832,0.04345249832,52.24637357
564.8599754,132.7120685,4.149751512,30.0377245,46.63673055,7129,7111,120,28.8,-2.992117646,0.01841995523,0.01841083936,44.73319052
562.1229064,122.7246295,5.056940123,34.25105725,54.47881774,7129,7111,120,28.8,1.521183327,0.0126040344,0.0126040344,54.47881774
572.1721184,143.6028035,7.38040129,34.20764158,63.72924674,7129,7111,120,28.8,0.7414332159,0.04963186675,0.001219654026,41.61909991
563.9553831,129.6611195,5.760084862,29.32944135,52.36978079,7129,7111,120,28.8,-1.750353263,0.02146174225,0.02146174225,52.36978079
563.446573,125.8090519,5.236829413,44.60120049,65.54851815,7129,7111,120,28.8,1.084094128,0.03593179068,0.002930238367,45.48264524
570.4424638,140.2772814,5.64043756,32.80928131,55.37103155,7129,7111,120,28.8,0.6076461756,0.0287949544,0.001009461627,38.42071577
555.7995362,112.2800219,3.661185694,29.31928839,43.96403117,7129,7111,120,28.8,-0.6809495694,0.154680607,0.154680607,43.96403117
556.707964,113.9616452,4.894613007,37.78205627,57.3605083,7129,7111,120,28.8,-0.5457172564,0.02532427891,0.02532427891,57.3605083
570.9465084,142.8281339,5.092378338,45.02214041,65.39165377,7129,7111,120,28.8,-0.9351171928,0.1094181771,0.001641364402,36.03213575
556.7681946,116.0202465,3.90390768,44.89018715,60.50581787,7129,7111,120,28.8,-2.483857251,0.01832820611,0.01673363465,50.62731699
563.3709236,125.8590236,5.044081701,29.49623765,49.67256446,7129,7111,120,28.8,0.8828235638,0.0308437621,0.0308437621,49.67256446
556.6465211,114.1264435,3.869474609,34.36272301,49.84062145,7129,7111,120,28.8,-0.8334013202,0.05320193249,0.05320193249,49.84062145
573.1675534,148.1119235,4.023154105,44.67200086,60.76461728,7129,7111,120,28.8,-1.776816675,0.1125906804,0.005441664135,32.24244998
570.9240059,142.1991394,4.008146134,35.44120679,51.47379133,7129,7111,120,28.8,-0.3511275398,0.07485199908,0.0004688649369,33.61553719
566.5681286,131.2704335,5.29963232,29.58868599,50.78721527,7129,7111,120,28.8,1.865823597,0.01348880172,0.01348880172,50.78721527
575.0803186,149.9744781,5.953930417,30.30078677,54.11650844,7129,7111,120,28.8,0.1861591332,0.05305158981,0.000643613593,35.34139327
562.4471718,125.1773783,3.855447466,36.47842804,51.9002179,7129,7111,120,28.8,-0.2830346891,0.00147060558,0.000400058568,44.48590106
567.1999639,133.2741719,4.785560048,45.54069573,64.68293592,7129,7111,120,28.8,1.125755809,0.08050575595,0.002642568521,39.6017975
573.6044509,144.3887811,4.04364807,34.36121629,50.53580857,7129,7111,120,28.8,2.820120697,0.09122458147,0.01220212843,33.00297702
