@RELATION appendixE_01_full_mixed

@ATTRIBUTE omega_m_MHz NUMERIC
@ATTRIBUTE omega_a_MHz NUMERIC
@ATTRIBUTE sigma_ns NUMERIC
@ATTRIBUTE T_active_ns NUMERIC
@ATTRIBUTE T_total_ns NUMERIC
@ATTRIBUTE omega_r_MHz NUMERIC
@ATTRIBUTE omega_p_MHz NUMERIC
@ATTRIBUTE g_qr_MHz NUMERIC
@ATTRIBUTE J_MHz NUMERIC
@ATTRIBUTE detuning_MHz NUMERIC
@ATTRIBUTE leakage_final NUMERIC
@ATTRIBUTE min_leakage NUMERIC
@ATTRIBUTE min_leakage_time_ns NUMERIC

@DATA
564,128,5,34.5,54.5,7129,7111,120,28.8,0,0.000599796535,0.0002034005173,46.71428571
558,120,4,30,46,7129,7111,120,28.8,-4,0.09063389892,0.09063389892,46
558,120,5,30,50,7129,7111,120,28.8,-4,0.0979277423,0.0979277423,50
558,120,6,30,54,7129,7111,120,28.8,-4,0.1066531828,0.1066531828,54
558,120,4,32,48,7129,7111,120,28.8,-4,0.06796960547,0.06796960547,48
558,120,5,32,52,7129,7111,120,28.8,-4,0.07367352764,0.07367352764,52
558,120,6,32,56,7129,7111,120,28.8,-4,0.08060881925,0.08060881925,56
558,120,4,34.5,50.5,7129,7111,120,28.8,-4,0.05009734111,0.05009734111,50.5
558,120,5,34.5,54.5,7129,7111,120,28.8,-4,0.05397920345,0.05397920345,54.5
558,120,6,34.5,58.5,7129,7111,120,28.8,-4,0.05881402203,0.05881402203,58.5
558,120,4,37,53,7129,7111,120,28.8,-4,0.04167346167,0.04167346167,53
558,120,5,37,57,7129,7111,120,28.8,-4,0.04399919973,0.04399919973,57
558,120,6,37,61,7129,7111,120,28.8,-4,0.04699424073,0.04699424073,61
558,120,4,40,56,7129,7111,120,28.8,-4,0.04062464811,0.0392929962,48
558,120,5,40,60,7129,7111,120,28.8,-4,0.04150005002,0.040483085,51.42857143
558,120,6,40,64,7129,7111,120,28.8,-4,0.04273157567,0.04201013957,54.85714286
559,120,4,30,46,7129,7111,120,28.8,-2,0.06750718354,0.06750718354,46
559,120,5,30,50,7129,7111,120,28.8,-2,0.07376346052,0.07376346052,50
559,120,6,30,54,7129,7111,120,28.8,-2,0.08128215747,0.08128215747,54
559,120,4,32,48,7129,7111,120,28.8,-2,0.04272798479,0.04272798479,48
559,120,5,32,52,7129,7111,120,28.8,-2,0.04744084068,0.04744084068,52
559,120,6,32,56,7129,7111,120,28.8,-2,0.05322038852,0.05322038852,56
559,120,4,34.5,50.5,7129,7111,120,28.8,-2,0.02268586189,0.02268586189,50.5
559,120,5,34.5,54.5,7129,7111,120,28.8,-2,0.02563901909,0.02563901909,54.5
559,120,6,34.5,58.5,7129,7111,120,28.8,-2,0.02938844974,0.02938844974,58.5
559,120,4,37,53,7129,7111,120,28.8,-2,0.0127227043,0.0127227043,53
559,120,5,37,57,7129,7111,120,28.8,-2,0.01417887154,0.01417887154,57
559,120,6,37,61,7129,7111,120,28.8,-2,0.01616000228,0.01616000228,61
559,120,4,40,56,7129,7111,120,28.8,-2,0.01074911337,0.01025213334,49.14285714
559,120,5,40,60,7129,7111,120,28.8,-2,0.01081737374,0.01058840286,52.65306122
559,120,6,40,64,7129,7111,120,28.8,-2,0.01111304958,0.0110631041,58.7755102
560,120,4,30,46,7129,7111,120,28.8,0,0.05964209928,0.05964209928,46
560,120,5,30,50,7129,7111,120,28.8,0,0.06553410261,0.06553410261,50
560,120,6,30,54,7129,7111,120,28.8,0,0.07262615319,0.07262615319,54
560,120,4,32,48,7129,7111,120,28.8,0,0.03412557986,0.03412557986,48
560,120,5,32,52,7129,7111,120,28.8,0,0.03848894444,0.03848894444,52
560,120,6,32,56,7129,7111,120,28.8,0,0.04385832008,0.04385832008,56
560,120,4,34.5,50.5,7129,7111,120,28.8,0,0.01331788328,0.01331788328,50.5
560,120,5,34.5,54.5,7129,7111,120,28.8,0,0.0159417071,0.0159417071,54.5
560,120,6,34.5,58.5,7129,7111,120,28.8,0,0.01930484625,0.01930484625,58.5
560,120,4,37,53,7129,7111,120,28.8,0,0.002799522067,0.002799522067,53
560,120,5,37,57,7129,7111,120,28.8,0,0.003946541575,0.003946541575,57
560,120,6,37,61,7129,7111,120,28.8,0,0.005566004237,0.005566004237,61
560,120,4,40,56,7129,7111,120,28.8,0,0.0004710721808,0.0002037714719,49.14285714
560,120,5,40,60,7129,7111,120,28.8,0,0.0002524358019,0.0002029793882,53.87755102
560,120,6,40,64,7129,7111,120,28.8,0,0.0002144123065,0.0002144123065,64
561,120,4,30,46,7129,7111,120,28.8,2,0.06750718354,0.06750718354,46
561,120,5,30,50,7129,7111,120,28.8,2,0.07376346052,0.07376346052,50
561,120,6,30,54,7129,7111,120,28.8,2,0.08128215747,0.08128215747,54
561,120,4,32,48,7129,7111,120,28.8,2,0.04272798479,0.04272798479,48
561,120,5,32,52,7129,7111,120,28.8,2,0.04744084068,0.04744084068,52
561,120,6,32,56,7129,7111,120,28.8,2,0.05322038852,0.05322038852,56
561,120,4,34.5,50.5,7129,7111,120,28.8,2,0.02268586189,0.02268586189,50.5
561,120,5,34.5,54.5,7129,7111,120,28.8,2,0.02563901909,0.02563901909,54.5
561,120,6,34.5,58.5,7129,7111,120,28.8,2,0.02938844974,0.02938844974,58.5
561,120,4,37,53,7129,7111,120,28.8,2,0.0127227043,0.0127227043,53
561,120,5,37,57,7129,7111,120,28.8,2,0.01417887154,0.01417887154,57
561,120,6,37,61,7129,7111,120,28.8,2,0.01616000228,0.01616000228,61
561,120,4,40,56,7129,7111,120,28.8,2,0.01074911337,0.01025213334,49.14285714
561,120,5,40,60,7129,7111,120,28.8,2,0.01081737374,0.01058840286,52.65306122
561,120,6,40,64,7129,7111,120,28.8,2,0.01111304958,0.0110631041,58.7755102
562,120,4,30,46,7129,7111,120,28.8,4,0.09063389892,0.09063389892,46
562,120,5,30,50,7129,7111,120,28.8,4,0.0979277423,0.0979277423,50
562,120,6,30,54,7129,7111,120,28.8,4,0.1066531828,0.1066531828,54
562,120,4,32,48,7129,7111,120,28.8,4,0.06796960547,0.06796960547,48
562,120,5,32,52,7129,7111,120,28.8,4,0.07367352764,0.07367352764,52
562,120,6,32,56,7129,7111,120,28.8,4,0.08060881925,0.08060881925,56
562,120,4,34.5,50.5,7129,7111,120,28.8,4,0.05009734111,0.05009734111,50.5
562,120,5,34.5,54.5,7129,7111,120,28.8,4,0.05397920345,0.05397920345,54.5
562,120,6,34.5,58.5,7129,7111,120,28.8,4,0.05881402203,0.05881402203,58.5
562,120,4,37,53,7129,7111,120,28.8,4,0.04167346167,0.04167346167,53
562,120,5,37,57,7129,7111,120,28.8,4,0.04399919973,0.04399919973,57
562,120,6,37,61,7129,7111,120,28.8,4,0.04699424073,0.04699424073,61
562,120,4,40,56,7129,7111,120,28.8,4,0.04062464811,0.0392929962,48
562,120,5,40,60,7129,7111,120,28.8,4,0.04150005002,0.040483085,51.42857143
562,120,6,40,64,7129,7111,120,28.8,4,0.04273157567,0.04201013957,54.85714286
560,124,4,30,46,7129,7111,120,28.8,-4,0.06177643184,0.06177643184,46
560,124,5,30,50,7129,7111,120,28.8,-4,0.06773761836,0.06773761836,50
560,124,6,30,54,7129,7111,120,28.8,-4,0.0750095058,0.0750095058,54
560,124,4,32,48,7129,7111,120,28.8,-4,0.04661315143,0.04661315143,48
560,124,5,32,52,7129,7111,120,28.8,-4,0.05083514284,0.05083514284,52
560,124,6,32,56,7129,7111,120,28.8,-4,0.05611616132,0.05611616132,56
560,124,4,34.5,50.5,7129,7111,120,28.8,-4,0.03807138018,0.03806216796,48.43877551
560,124,5,34.5,54.5,7129,7111,120,28.8,-4,0.04039996464,0.04039638135,53.3877551
560,124,6,34.5,58.5,7129,7111,120,28.8,-4,0.04345918264,0.04345918264,58.5
560,124,4,37,53,7129,7111,120,28.8,-4,0.03821089935,0.03627312828,44.34693878
560,124,5,37,57,7129,7111,120,28.8,-4,0.03903396088,0.03758170697,47.69387755
560,124,6,37,61,7129,7111,120,28.8,-4,0.04027034239,0.0393005034,51.04081633
560,124,4,40,56,7129,7111,120,28.8,-4,0.04558874545,0.03584853372,43.42857143
560,124,5,40,60,7129,7111,120,28.8,-4,0.04515738272,0.03684927696,46.53061224
560,124,6,40,64,7129,7111,120,28.8,-4,0.04481241031,0.03797307764,48.32653061
561,124,4,30,46,7129,7111,120,28.8,-2,0.03821748379,0.03821748379,46
561,124,5,30,50,7129,7111,120,28.8,-2,0.04310690833,0.04310690833,50
561,124,6,30,54,7129,7111,120,28.8,-2,0.04912753305,0.04912753305,54
561,124,4,32,48,7129,7111,120,28.8,-2,0.0212623469,0.0212623469,48
561,124,5,32,52,7129,7111,120,28.8,-2,0.02446886062,0.02446886062,52
561,124,6,32,56,7129,7111,120,28.8,-2,0.02856151056,0.02856151056,56
561,124,4,34.5,50.5,7129,7111,120,28.8,-2,0.01106989335,0.01106989335,50.5
561,124,5,34.5,54.5,7129,7111,120,28.8,-2,0.01245380885,0.01245380885,54.5
561,124,6,34.5,58.5,7129,7111,120,28.8,-2,0.01440671791,0.01440671791,58.5
561,124,4,37,53,7129,7111,120,28.8,-2,0.01029308163,0.009458171786,45.42857143
561,124,5,37,57,7129,7111,120,28.8,-2,0.01023665353,0.009842871261,48.85714286
561,124,6,37,61,7129,7111,120,28.8,-2,0.01044805353,0.01034082407,54.7755102
561,124,4,40,56,7129,7111,120,28.8,-2,0.01757922399,0.00939541881,43.42857143
561,124,5,40,60,7129,7111,120,28.8,-2,0.01633493559,0.00955516652,46.53061224
561,124,6,40,64,7129,7111,120,28.8,-2,0.01504979119,0.009867106271,49.63265306
562,124,4,30,46,7129,7111,120,28.8,0,0.03020425296,0.03020425296,46
562,124,5,30,50,7129,7111,120,28.8,0,0.03471681922,0.03471681922,50
562,124,6,30,54,7129,7111,120,28.8,0,0.04029607804,0.04029607804,54
562,124,4,32,48,7129,7111,120,28.8,0,0.01262102958,0.01262102958,48
562,124,5,32,52,7129,7111,120,28.8,0,0.0154691431,0.0154691431,52
562,124,6,32,56,7129,7111,120,28.8,0,0.01914110517,0.01914110517,56
562,124,4,34.5,50.5,7129,7111,120,28.8,0,0.001839416882,0.001839416882,50.5
562,124,5,34.5,54.5,7129,7111,120,28.8,0,0.002889153086,0.002889153086,54.5
562,124,6,34.5,58.5,7129,7111,120,28.8,0,0.004449450633,0.004449450633,58.5
562,124,4,37,53,7129,7111,120,28.8,0,0.0007207304905,0.0002234464757,46.51020408
562,124,5,37,57,7129,7111,120,28.8,0,0.0003531545543,0.0002042399908,50.02040816
562,124,6,37,61,7129,7111,120,28.8,0,0.0001999351246,0.0001999351246,61
562,124,4,40,56,7129,7111,120,28.8,0,0.007939331065,0.000326953207,44.57142857
562,124,5,40,60,7129,7111,120,28.8,0,0.00640819567,0.0002110318281,46.53061224
562,124,6,40,64,7129,7111,120,28.8,0,0.004789445834,0.0002031997133,49.63265306
563,124,4,30,46,7129,7111,120,28.8,2,0.03821748379,0.03821748379,46
563,124,5,30,50,7129,7111,120,28.8,2,0.04310690833,0.04310690833,50
563,124,6,30,54,7129,7111,120,28.8,2,0.04912753305,0.04912753305,54
563,124,4,32,48,7129,7111,120,28.8,2,0.0212623469,0.0212623469,48
563,124,5,32,52,7129,7111,120,28.8,2,0.02446886062,0.02446886062,52
563,124,6,32,56,7129,7111,120,28.8,2,0.02856151056,0.02856151056,56
563,124,4,34.5,50.5,7129,7111,120,28.8,2,0.01106989335,0.01106989335,50.5
563,124,5,34.5,54.5,7129,7111,120,28.8,2,0.01245380885,0.01245380885,54.5
563,124,6,34.5,58.5,7129,7111,120,28.8,2,0.01440671791,0.01440671791,58.5
563,124,4,37,53,7129,7111,120,28.8,2,0.01029308163,0.009458171786,45.42857143
563,124,5,37,57,7129,7111,120,28.8,2,0.01023665353,0.009842871261,48.85714286
563,124,6,37,61,7129,7111,120,28.8,2,0.01044805353,0.01034082407,54.7755102
563,124,4,40,56,7129,7111,120,28.8,2,0.01757922399,0.00939541881,43.42857143
563,124,5,40,60,7129,7111,120,28.8,2,0.01633493559,0.00955516652,46.53061224
563,124,6,40,64,7129,7111,120,28.8,2,0.01504979119,0.009867106271,49.63265306
564,124,4,30,46,7129,7111,120,28.8,4,0.06177643184,0.06177643184,46
564,124,5,30,50,7129,7111,120,28.8,4,0.06773761836,0.06773761836,50
564,124,6,30,54,7129,7111,120,28.8,4,0.0750095058,0.0750095058,54
564,124,4,32,48,7129,7111,120,28.8,4,0.04661315143,0.04661315143,48
564,124,5,32,52,7129,7111,120,28.8,4,0.05083514284,0.05083514284,52
564,124,6,32,56,7129,7111,120,28.8,4,0.05611616132,0.05611616132,56
564,124,4,34.5,50.5,7129,7111,120,28.8,4,0.03807138018,0.03806216796,48.43877551
564,124,5,34.5,54.5,7129,7111,120,28.8,4,0.04039996464,0.04039638135,53.3877551
564,124,6,34.5,58.5,7129,7111,120,28.8,4,0.04345918264,0.04345918264,58.5
564,124,4,37,53,7129,7111,120,28.8,4,0.03821089935,0.03627312828,44.34693878
564,124,5,37,57,7129,7111,120,28.8,4,0.03903396088,0.03758170697,47.69387755
564,124,6,37,61,7129,7111,120,28.8,4,0.04027034239,0.0393005034,51.04081633
564,124,4,40,56,7129,7111,120,28.8,4,0.04558874545,0.03584853372,43.42857143
564,124,5,40,60,7129,7111,120,28.8,4,0.04515738272,0.03684927696,46.53061224
564,124,6,40,64,7129,7111,120,28.8,4,0.04481241031,0.03797307764,48.32653061
562,128,4,30,46,7129,7111,120,28.8,-4,0.04239585643,0.04239585643,46
562,128,5,30,50,7129,7111,120,28.8,-4,0.04676597253,0.04676597253,50
562,128,6,30,54,7129,7111,120,28.8,-4,0.05227424146,0.05227424146,54
562,128,4,32,48,7129,7111,120,28.8,-4,0.03535487252,0.03534383975,46.04081633
562,128,5,32,52,7129,7111,120,28.8,-4,0.03790054514,0.03789811783,50.93877551
562,128,6,32,56,7129,7111,120,28.8,-4,0.04128368369,0.04128368369,56
562,128,4,34.5,50.5,7129,7111,120,28.8,-4,0.03625437726,0.03353111883,41.2244898
562,128,5,34.5,54.5,7129,7111,120,28.8,-4,0.03693823388,0.03491320912,44.48979592
562,128,6,34.5,58.5,7129,7111,120,28.8,-4,0.03808357255,0.03675067173,48.94897959
562,128,4,37,53,7129,7111,120,28.8,-4,0.04430806993,0.03315477983,41.10204082
562,128,5,37,57,7129,7111,120,28.8,-4,0.04365060447,0.03417506417,43.04081633
562,128,6,37,61,7129,7111,120,28.8,-4,0.0431168952,0.03544688829,46.06122449
562,128,4,40,56,7129,7111,120,28.8,-4,0.0584267454,0.03319795145,40
562,128,5,40,60,7129,7111,120,28.8,-4,0.05684345783,0.03383949181,42.85714286
562,128,6,40,64,7129,7111,120,28.8,-4,0.05506251015,0.0349200641,45.71428571
563,128,4,30,46,7129,7111,120,28.8,-2,0.01873487155,0.01873487155,46
563,128,5,30,50,7129,7111,120,28.8,-2,0.02200945072,0.02200945072,50
563,128,6,30,54,7129,7111,120,28.8,-2,0.02623513463,0.02623513463,54
563,128,4,32,48,7129,7111,120,28.8,-2,0.0102935669,0.0102935669,48
563,128,5,32,52,7129,7111,120,28.8,-2,0.01180985193,0.01180985193,52
563,128,6,32,56,7129,7111,120,28.8,-2,0.01398499272,0.01398499272,56
563,128,4,34.5,50.5,7129,7111,120,28.8,-2,0.01013346005,0.008738670527,42.25510204
563,128,5,34.5,54.5,7129,7111,120,28.8,-2,0.009867091271,0.009137270998,46.71428571
563,128,6,34.5,58.5,7129,7111,120,28.8,-2,0.009899865369,0.009652929216,51.33673469
563,128,4,37,53,7129,7111,120,28.8,-2,0.01793924509,0.008604953329,41.10204082
563,128,5,37,57,7129,7111,120,28.8,-2,0.01640238568,0.008898856875,44.20408163
563,128,6,37,61,7129,7111,120,28.8,-2,0.01484484043,0.009249079958,47.30612245
563,128,4,40,56,7129,7111,120,28.8,-2,0.03280040372,0.008617618929,41.14285714
563,128,5,40,60,7129,7111,120,28.8,-2,0.03040724681,0.008893986875,42.85714286
563,128,6,40,64,7129,7111,120,28.8,-2,0.02769231439,0.009064329435,45.71428571
564,128,4,30,46,7129,7111,120,28.8,0,0.01068512733,0.01068512733,46
564,128,5,30,50,7129,7111,120,28.8,0,0.01357508304,0.01357508304,50
564,128,6,30,54,7129,7111,120,28.8,0,0.01734893912,0.01734893912,54
564,128,4,32,48,7129,7111,120,28.8,0,0.001748653585,0.001748653585,48
564,128,5,32,52,7129,7111,120,28.8,0,0.002902480389,0.002902480389,52
564,128,6,32,56,7129,7111,120,28.8,0,0.004650879474,0.004650879474,56
564,128,4,34.5,50.5,7129,7111,120,28.8,0,0.001201289174,0.0002208421679,43.28571429
564,128,5,34.5,54.5,7129,7111,120,28.8,0,0.000599796535,0.0002034005173,46.71428571
564,128,6,34.5,58.5,7129,7111,120,28.8,0,0.0002387660683,0.0002020380472,53.7244898
564,128,4,37,53,7129,7111,120,28.8,0,0.008894736606,0.0002349223531,41.10204082
564,128,5,37,57,7129,7111,120,28.8,0,0.00704793629,0.0002027187499,44.20408163
564,128,6,37,61,7129,7111,120,28.8,0,0.005127869694,0.0002024440268,47.30612245
564,128,4,40,56,7129,7111,120,28.8,0,0.02397711879,0.0002153421169,41.14285714
564,128,5,40,60,7129,7111,120,28.8,0,0.02129998448,0.0003841797302,42.85714286
564,128,6,40,64,7129,7111,120,28.8,0,0.01825587381,0.0002300923401,45.71428571
565,128,4,30,46,7129,7111,120,28.8,2,0.01873487155,0.01873487155,46
565,128,5,30,50,7129,7111,120,28.8,2,0.02200945072,0.02200945072,50
565,128,6,30,54,7129,7111,120,28.8,2,0.02623513463,0.02623513463,54
565,128,4,32,48,7129,7111,120,28.8,2,0.0102935669,0.0102935669,48
565,128,5,32,52,7129,7111,120,28.8,2,0.01180985193,0.01180985193,52
565,128,6,32,56,7129,7111,120,28.8,2,0.01398499272,0.01398499272,56
565,128,4,34.5,50.5,7129,7111,120,28.8,2,0.01013346005,0.008738670527,42.25510204
565,128,5,34.5,54.5,7129,7111,120,28.8,2,0.009867091271,0.009137270998,46.71428571
565,128,6,34.5,58.5,7129,7111,120,28.8,2,0.009899865369,0.009652929216,51.33673469
565,128,4,37,53,7129,7111,120,28.8,2,0.01793924509,0.008604953329,41.10204082
565,128,5,37,57,7129,7111,120,28.8,2,0.01640238568,0.008898856875,44.20408163
565,128,6,37,61,7129,7111,120,28.8,2,0.01484484043,0.009249079958,47.30612245
565,128,4,40,56,7129,7111,120,28.8,2,0.03280040372,0.008617618929,41.14285714
565,128,5,40,60,7129,7111,120,28.8,2,0.03040724681,0.008893986875,42.85714286
565,128,6,40,64,7129,7111,120,28.8,2,0.02769231439,0.009064329435,45.71428571
566,128,4,30,46,7129,7111,120,28.8,4,0.04239585643,0.04239585643,46
566,128,5,30,50,7129,7111,120,28.8,4,0.04676597253,0.04676597253,50
566,128,6,30,54,7129,7111,120,28.8,4,0.05227424146,0.05227424146,54
566,128,4,32,48,7129,7111,120,28.8,4,0.03535487252,0.03534383975,46.04081633
566,128,5,32,52,7129,7111,120,28.8,4,0.03790054514,0.03789811783,50.93877551
566,128,6,32,56,7129,7111,120,28.8,4,0.04128368369,0.04128368369,56
566,128,4,34.5,50.5,7129,7111,120,28.8,4,0.03625437726,0.03353111883,41.2244898
566,128,5,34.5,54.5,7129,7111,120,28.8,4,0.03693823388,0.03491320912,44.48979592
566,128,6,34.5,58.5,7129,7111,120,28.8,4,0.03808357255,0.03675067173,48.94897959
566,128,4,37,53,7129,7111,120,28.8,4,0.04430806993,0.03315477983,41.10204082
566,128,5,37,57,7129,7111,120,28.8,4,0.04365060447,0.03417506417,43.04081633
566,128,6,37,61,7129,7111,120,28.8,4,0.0431168952,0.03544688829,46.06122449
566,128,4,40,56,7129,7111,120,28.8,4,0.0584267454,0.03319795145,40
566,128,5,40,60,7129,7111,120,28.8,4,0.05684345783,0.03383949181,42.85714286
566,128,6,40,64,7129,7111,120,28.8,4,0.05506251015,0.0349200641,45.71428571
564,132,4,30,46,7129,7111,120,28.8,-4,0.03262701882,0.03258833491,43.18367347
564,132,5,30,50,7129,7111,120,28.8,-4,0.03520400252,0.03519444795,47.95918367
564,132,6,30,54,7129,7111,120,28.8,-4,0.0386954174,0.0386954174,54
564,132,4,32,48,7129,7111,120,28.8,-4,0.03385506529,0.0310876362,39.18367347
564,132,5,32,52,7129,7111,120,28.8,-4,0.03460934871,0.03266450302,42.44897959
564,132,6,32,56,7129,7111,120,28.8,-4,0.03593036455,0.03472175618,46.85714286
564,132,4,34.5,50.5,7129,7111,120,28.8,-4,0.04361691506,0.0306733798,38.13265306
564,132,5,34.5,54.5,7129,7111,120,28.8,-4,0.04266320929,0.03170847585,41.15306122
564,132,6,34.5,58.5,7129,7111,120,28.8,-4,0.04186577159,0.03316209439,44.17346939
564,132,4,37,53,7129,7111,120,28.8,-4,0.05821050863,0.03060098831,37.85714286
564,132,5,37,57,7129,7111,120,28.8,-4,0.05620497369,0.03141252143,40.71428571
564,132,6,37,61,7129,7111,120,28.8,-4,0.05401197212,0.0326524309,43.57142857
564,132,4,40,56,7129,7111,120,28.8,-4,0.07659360706,0.0306550329,37.71428571
564,132,5,40,60,7129,7111,120,28.8,-4,0.07412125956,0.03131109844,40.40816327
564,132,6,40,64,7129,7111,120,28.8,-4,0.07116863911,0.03238438583,43.10204082
565,132,4,30,46,7129,7111,120,28.8,-2,0.009206387272,0.009206387272,46
565,132,5,30,50,7129,7111,120,28.8,-2,0.01067641732,0.01067641732,50
565,132,6,30,54,7129,7111,120,28.8,-2,0.01286734823,0.01286734823,54
565,132,4,32,48,7129,7111,120,28.8,-2,0.009481647259,0.008107533034,40.16326531
565,132,5,32,52,7129,7111,120,28.8,-2,0.009203194572,0.008546951408,44.57142857
565,132,6,32,56,7129,7111,120,28.8,-2,0.00931117408,0.009142690354,49.14285714
565,132,4,34.5,50.5,7129,7111,120,28.8,-2,0.01882159572,0.007990448678,39.16326531
565,132,5,34.5,54.5,7129,7111,120,28.8,-2,0.01692256648,0.00837140345,41.15306122
565,132,6,34.5,58.5,7129,7111,120,28.8,-2,0.01501807415,0.008738294359,44.17346939
565,132,4,37,53,7129,7111,120,28.8,-2,0.03384441716,0.008029159615,38.93877551
565,132,5,37,57,7129,7111,120,28.8,-2,0.03096820311,0.008217932454,40.71428571
565,132,6,37,61,7129,7111,120,28.8,-2,0.02776325079,0.008464792149,43.57142857
565,132,4,40,56,7129,7111,120,28.8,-2,0.0537496559,0.008035924527,38.85714286
565,132,5,40,60,7129,7111,120,28.8,-2,0.05047772749,0.008244495072,40.40816327
565,132,6,40,64,7129,7111,120,28.8,-2,0.04660723253,0.008395087325,43.10204082
566,132,4,30,46,7129,7111,120,28.8,0,0.001236420086,0.001236420086,46
566,132,5,30,50,7129,7111,120,28.8,0,0.002318479202,0.002318479202,50
566,132,6,30,54,7129,7111,120,28.8,0,0.004052031664,0.004052031664,54
566,132,4,32,48,7129,7111,120,28.8,0,0.00116895648,0.0002210724434,41.14285714
566,132,5,32,52,7129,7111,120,28.8,0,0.000527869624,0.0002120841057,44.57142857
566,132,6,32,56,7129,7111,120,28.8,0,0.000208007421,0.0001998892464,52.57142857
566,132,4,34.5,50.5,7129,7111,120,28.8,0,0.01033993616,0.0002092389277,39.16326531
566,132,5,34.5,54.5,7129,7111,120,28.8,0,0.008108727811,0.0002795025753,42.26530612
566,132,6,34.5,58.5,7129,7111,120,28.8,0,0.005813517782,0.0002444935623,45.36734694
566,132,4,37,53,7129,7111,120,28.8,0,0.02548362722,0.0002585624224,38.93877551
566,132,5,37,57,7129,7111,120,28.8,0,0.02230209301,0.0003232989665,40.71428571
566,132,6,37,61,7129,7111,120,28.8,0,0.01874081739,0.00021911788,43.57142857
566,132,4,40,56,7129,7111,120,28.8,0,0.04588143402,0.0002707028274,38.85714286
566,132,5,40,60,7129,7111,120,28.8,0,0.04233121408,0.0003948639751,40.40816327
566,132,6,40,64,7129,7111,120,28.8,0,0.03813932045,0.0002185950796,43.10204082
567,132,4,30,46,7129,7111,120,28.8,2,0.009206387272,0.009206387272,46
567,132,5,30,50,7129,7111,120,28.8,2,0.01067641732,0.01067641732,50
567,132,6,30,54,7129,7111,120,28.8,2,0.01286734823,0.01286734823,54
567,132,4,32,48,7129,7111,120,28.8,2,0.009481647259,0.008107533034,40.16326531
567,132,5,32,52,7129,7111,120,28.8,2,0.009203194572,0.008546951408,44.57142857
567,132,6,32,56,7129,7111,120,28.8,2,0.00931117408,0.009142690354,49.14285714
567,132,4,34.5,50.5,7129,7111,120,28.8,2,0.01882159572,0.007990448678,39.16326531
567,132,5,34.5,54.5,7129,7111,120,28.8,2,0.01692256648,0.00837140345,41.15306122
567,132,6,34.5,58.5,7129,7111,120,28.8,2,0.01501807415,0.008738294359,44.17346939
567,132,4,37,53,7129,7111,120,28.8,2,0.03384441716,0.008029159615,38.93877551
567,132,5,37,57,7129,7111,120,28.8,2,0.03096820311,0.008217932454,40.71428571
567,132,6,37,61,7129,7111,120,28.8,2,0.02776325079,0.008464792149,43.57142857
567,132,4,40,56,7129,7111,120,28.8,2,0.0537496559,0.008035924527,38.85714286
567,132,5,40,60,7129,7111,120,28.8,2,0.05047772749,0.008244495072,40.40816327
567,132,6,40,64,7129,7111,120,28.8,2,0.04660723253,0.008395087325,43.10204082
568,132,4,30,46,7129,7111,120,28.8,4,0.03262701882,0.03258833491,43.18367347
568,132,5,30,50,7129,7111,120,28.8,4,0.03520400252,0.03519444795,47.95918367
568,132,6,30,54,7129,7111,120,28.8,4,0.0386954174,0.0386954174,54
568,132,4,32,48,7129,7111,120,28.8,4,0.03385506529,0.0310876362,39.18367347
568,132,5,32,52,7129,7111,120,28.8,4,0.03460934871,0.03266450302,42.44897959
568,132,6,32,56,7129,7111,120,28.8,4,0.03593036455,0.03472175618,46.85714286
568,132,4,34.5,50.5,7129,7111,120,28.8,4,0.04361691506,0.0306733798,38.13265306
568,132,5,34.5,54.5,7129,7111,120,28.8,4,0.04266320929,0.03170847585,41.15306122
568,132,6,34.5,58.5,7129,7111,120,28.8,4,0.04186577159,0.03316209439,44.17346939
568,132,4,37,53,7129,7111,120,28.8,4,0.05821050863,0.03060098831,37.85714286
568,132,5,37,57,7129,7111,120,28.8,4,0.05620497369,0.03141252143,40.71428571
568,132,6,37,61,7129,7111,120,28.8,4,0.05401197212,0.0326524309,43.57142857
568,132,4,40,56,7129,7111,120,28.8,4,0.07659360706,0.0306550329,37.71428571
568,132,5,40,60,7129,7111,120,28.8,4,0.07412125956,0.03131109844,40.40816327
568,132,6,40,64,7129,7111,120,28.8,4,0.07116863911,0.03238438583,43.10204082
566,136,4,30,46,7129,7111,120,28.8,-4,0.03214466437,0.02880689013,37.55102041
566,136,5,30,50,7129,7111,120,28.8,-4,0.03280123811,0.03050079358,40.81632653
566,136,6,30,54,7129,7111,120,28.8,-4,0.03409908348,0.03274720719,45.18367347
566,136,4,32,48,7129,7111,120,28.8,-4,0.0412494573,0.02844515955,36.24489796
566,136,5,32,52,7129,7111,120,28.8,-4,0.04018937518,0.02962220885,39.26530612
566,136,6,32,56,7129,7111,120,28.8,-4,0.03938368449,0.03126786955,42.28571429
566,136,4,34.5,50.5,7129,7111,120,28.8,-4,0.05857260417,0.02821793997,36.07142857
566,136,5,34.5,54.5,7129,7111,120,28.8,-4,0.05609661041,0.0292656797,38.92857143
566,136,6,34.5,58.5,7129,7111,120,28.8,-4,0.05344436424,0.03066323286,41.78571429
566,136,4,37,53,7129,7111,120,28.8,-4,0.07765198339,0.02843602596,35.69387755
566,136,5,37,57,7129,7111,120,28.8,-4,0.07453953698,0.02910505279,38.3877551
566,136,6,37,61,7129,7111,120,28.8,-4,0.07092172395,0.0302578871,41.08163265
566,136,4,40,56,7129,7111,120,28.8,-4,0.09720671813,0.02832958961,36.57142857
566,136,5,40,60,7129,7111,120,28.8,-4,0.09419720229,0.02930856346,37.95918367
566,136,6,40,64,7129,7111,120,28.8,-4,0.09044457219,0.03018580485,40.48979592
567,136,4,30,46,7129,7111,120,28.8,-2,0.009306929918,0.00752407936,38.48979592
567,136,5,30,50,7129,7111,120,28.8,-2,0.008855167486,0.007987872734,41.83673469
567,136,6,30,54,7129,7111,120,28.8,-2,0.008850267232,0.008615364285,47.3877551
567,136,4,32,48,7129,7111,120,28.8,-2,0.01794384362,0.007410303972,37.2244898
567,136,5,32,52,7129,7111,120,28.8,-2,0.0158590829,0.007814790254,40.32653061
567,136,6,32,56,7129,7111,120,28.8,-2,0.01384845954,0.008183494691,43.42857143
567,136,4,34.5,50.5,7129,7111,120,28.8,-2,0.03549845959,0.007581294713,36.07142857
567,136,5,34.5,54.5,7129,7111,120,28.8,-2,0.03209093909,0.00759711253,38.92857143
567,136,6,34.5,58.5,7129,7111,120,28.8,-2,0.0283493042,0.007935023521,41.78571429
567,136,4,37,53,7129,7111,120,28.8,-2,0.05565259635,0.007431296952,36.7755102
567,136,5,37,57,7129,7111,120,28.8,-2,0.05168574878,0.007705776638,38.3877551
567,136,6,37,61,7129,7111,120,28.8,-2,0.04707837203,0.007859972887,41.08163265
567,136,4,40,56,7129,7111,120,28.8,-2,0.07739928681,0.007331022803,36.57142857
567,136,5,40,60,7129,7111,120,28.8,-2,0.07360740031,0.007854453015,39.18367347
567,136,6,40,64,7129,7111,120,28.8,-2,0.06896107696,0.008092254691,40.48979592
568,136,4,30,46,7129,7111,120,28.8,0,0.0015335309,0.0002026623186,38.48979592
568,136,5,30,50,7129,7111,120,28.8,0,0.0006942197538,0.0002003741247,42.85714286
568,136,6,30,54,7129,7111,120,28.8,0,0.0002313164091,0.0002003337775,49.59183673
568,136,4,32,48,7129,7111,120,28.8,0,0.009993014325,0.000207715881,37.2244898
568,136,5,32,52,7129,7111,120,28.8,0,0.007549282099,0.0002430893199,40.32653061
568,136,6,32,56,7129,7111,120,28.8,0,0.00511469592,0.0002047861858,43.42857143
568,136,4,34.5,50.5,7129,7111,120,28.8,0,0.02760263064,0.0004031698375,37.10204082
568,136,5,34.5,54.5,7129,7111,120,28.8,0,0.02386896801,0.0002351141081,38.92857143
568,136,6,34.5,58.5,7129,7111,120,28.8,0,0.01974453836,0.0002008663444,41.78571429
568,136,4,37,53,7129,7111,120,28.8,0,0.04810098899,0.0002635443738,36.7755102
568,136,5,37,57,7129,7111,120,28.8,0,0.04383635461,0.0004379084229,38.3877551
568,136,6,37,61,7129,7111,120,28.8,0,0.03888240038,0.0002412666624,41.08163265
568,136,4,40,56,7129,7111,120,28.8,0,0.07057532778,0.0002031701752,36.57142857
568,136,5,40,60,7129,7111,120,28.8,0,0.06651263318,0.0004208412491,39.18367347
568,136,6,40,64,7129,7111,120,28.8,0,0.06155605814,0.0005806915068,40.48979592
569,136,4,30,46,7129,7111,120,28.8,2,0.009306929918,0.00752407936,38.48979592
569,136,5,30,50,7129,7111,120,28.8,2,0.008855167486,0.007987872734,41.83673469
569,136,6,30,54,7129,7111,120,28.8,2,0.008850267232,0.008615364285,47.3877551
569,136,4,32,48,7129,7111,120,28.8,2,0.01794384362,0.007410303972,37.2244898
569,136,5,32,52,7129,7111,120,28.8,2,0.0158590829,0.007814790254,40.32653061
569,136,6,32,56,7129,7111,120,28.8,2,0.01384845954,0.008183494691,43.42857143
569,136,4,34.5,50.5,7129,7111,120,28.8,2,0.03549845959,0.007581294713,36.07142857
569,136,5,34.5,54.5,7129,7111,120,28.8,2,0.03209093909,0.00759711253,38.92857143
569,136,6,34.5,58.5,7129,7111,120,28.8,2,0.0283493042,0.007935023521,41.78571429
569,136,4,37,53,7129,7111,120,28.8,2,0.05565259635,0.007431296952,36.7755102
569,136,5,37,57,7129,7111,120,28.8,2,0.05168574878,0.007705776638,38.3877551
569,136,6,37,61,7129,7111,120,28.8,2,0.04707837203,0.007859972887,41.08163265
569,136,4,40,56,7129,7111,120,28.8,2,0.07739928681,0.007331022803,36.57142857
569,136,5,40,60,7129,7111,120,28.8,2,0.07360740031,0.007854453015,39.18367347
569,136,6,40,64,7129,7111,120,28.8,2,0.06896107696,0.008092254691,40.48979592
570,136,4,30,46,7129,7111,120,28.8,4,0.03214466437,0.02880689013,37.55102041
570,136,5,30,50,7129,7111,120,28.8,4,0.03280123811,0.03050079358,40.81632653
570,136,6,30,54,7129,7111,120,28.8,4,0.03409908348,0.03274720719,45.18367347
570,136,4,32,48,7129,7111,120,28.8,4,0.0412494573,0.02844515955,36.24489796
570,136,5,32,52,7129,7111,120,28.8,4,0.04018937518,0.02962220885,39.26530612
570,136,6,32,56,7129,7111,120,28.8,4,0.03938368449,0.03126786955,42.28571429
570,136,4,34.5,50.5,7129,7111,120,28.8,4,0.05857260417,0.02821793997,36.07142857
570,136,5,34.5,54.5,7129,7111,120,28.8,4,0.05609661041,0.0292656797,38.92857143
570,136,6,34.5,58.5,7129,7111,120,28.8,4,0.05344436424,0.03066323286,41.78571429
570,136,4,37,53,7129,7111,120,28.8,4,0.07765198339,0.02843602596,35.69387755
570,136,5,37,57,7129,7111,120,28.8,4,0.07453953698,0.02910505279,38.3877551
570,136,6,37,61,7129,7111,120,28.8,4,0.07092172395,0.0302578871,41.08163265
570,136,4,40,56,7129,7111,120,28.8,4,0.09720671813,0.02832958961,36.57142857
570,136,5,40,60,7129,7111,120,28.8,4,0.09419720229,0.02930856346,37.95918367
570,136,6,40,64,7129,7111,120,28.8,4,0.09044457219,0.03018580485,40.48979592
565.2441975,131.5849465,4.109408161,31.77197529,48.20960793,7129,7111,120,28.8,-1.096551421,0.002966269551,0.002644153868,42.30639064
587.4859893,100.3159183,6.985347144,35.10217868,63.04356725,7129,7111,120,28.8,74.6560603,0.9772713912,0.9749252045,43.74451605
564.6934519,129.070661,4.441719173,34.41224453,52.17912123,7129,7111,120,28.8,0.316242747,0.002295867589,0.0004583568478,42.595201
555.0194812,111.8694254,3.09877726,26.76277356,39.1578826,7129,7111,120,28.8,-1.830463044,0.2207644243,0.2207644243,39.1578826
561.7461936,127.2947266,5.162758615,34.97025326,55.62128772,7129,7111,120,28.8,-3.802339444,0.03402782893,0.03232830103,46.54026115
548.9226142,100,4.951499055,35.17985392,54.98585013,7129,7111,120,28.8,-2.154771583,0.2308578911,0.2308578911,54.98585013
559.1764422,122.2669607,4.191162761,40.86539174,57.63004278,7129,7111,120,28.8,-3.914076312,0.04287782653,0.03589390828,45.86880956
565.2778022,127.9024349,4.64983974,34.16489415,52.76425311,7129,7111,120,28.8,2.653169602,0.01634936966,0.01565891102,45.22650267
589.3005172,130.5874486,6.198585835,42.76958653,67.56392986,7129,7111,120,28.8,48.0135859,0.8352994969,0.8244755631,51.01766133
565.4681051,130.5781481,4.615117764,40.50124964,58.96172069,7129,7111,120,28.8,0.3580620771,0.03909024996,0.0004758057558,40.91221436
556.953299,113.6085332,5.576689584,33.36730725,55.67406558,7129,7111,120,28.8,0.2980649151,0.07877238356,0.07877238356,55.67406558
598.5123519,122.7667703,5.949958465,38.94157511,62.74140897,7129,7111,120,28.8,74.25793352,0.9450526849,0.9392634954,46.09572904
561.4746914,122.4403091,3.812805472,31.02419042,46.27541231,7129,7111,120,28.8,0.5090736449,0.02864807337,0.02864807337,46.27541231
571.6830272,138.7851665,3.676472208,29.7321458,44.43803463,7129,7111,120,28.8,4.58088803,0.04450954515,0.03468135542,34.46214931
560.3166155,122.0227406,4.941627845,38.27104493,58.03755631,7129,7111,120,28.8,-1.389509595,0.005183356769,0.005060414284,52.11535669
569.8803404,154.2350073,3.727299769,27.38897786,42.29817693,7129,7111,120,28.8,-14.47432659,0.3021575945,0.2161132621,26.76007112
542.6386749,133.1395893,7.420284471,39.96400775,69.64514563,7129,7111,120,28.8,-47.86223948,0.8446288553,0.8330616009,51.1678621
563.0437087,127.8617424,6.166127776,38.41853102,63.08304212,7129,7111,120,28.8,-1.774324892,0.01743420294,0.00742065796,46.34672482
568.3344639,128.063813,4.610816549,43.03709776,61.48036395,7129,7111,120,28.8,8.605114881,0.172643988,0.1400654335,40.15044176
562.5836802,124.1273203,3.98707753,28.39401317,44.34232328,7129,7111,120,28.8,1.040040147,0.05208322906,0.05208322906,44.34232328
558.9285399,117.2008687,7.244756626,29.50966091,58.48868742,7129,7111,120,28.8,0.6562111828,0.1229040748,0.1229040748,58.48868742
566.2184503,130.4648474,4.823593934,33.26441802,52.55879375,7129,7111,120,28.8,1.972053166,0.009791625296,0.008394659916,43.9777662
595.3393575,109.0637367,3.025894329,43.0833701,55.18694742,7129,7111,120,28.8,81.61497824,0.9603846348,0.9562142933,47.30309779
559.3232556,108.2058431,7.07628139,22.39959331,50.70471887,7129,7111,120,28.8,10.44066804,0.5544610961,0.5544610961,50.70471887
