@RELATION appendixE_05_T_active_sweep

@ATTRIBUTE omega_m_MHz NUMERIC
@ATTRIBUTE omega_a_MHz NUMERIC
@ATTRIBUTE sigma_ns NUMERIC
@ATTRIBUTE T_active_ns NUMERIC
@ATTRIBUTE T_total_ns NUMERIC
@ATTRIBUTE omega_r_MHz NUMERIC
@ATTRIBUTE omega_p_MHz NUMERIC
@ATTRIBUTE g_qr_MHz NUMERIC
@ATTRIBUTE J_MHz NUMERIC
@ATTRIBUTE detuning_MHz NUMERIC
@ATTRIBUTE leakage_final NUMERIC
@ATTRIBUTE min_leakage NUMERIC
@ATTRIBUTE min_leakage_time_ns NUMERIC

@DATA
564,128,5,34.5,54.5,7129,7111,120,28.8,0,0.000599796535,0.0002034005173,46.71428571
560,120,4,24,40,7129,7111,120,28.8,0,0.1918811822,0.1918811822,40
560,120,4,26,42,7129,7111,120,28.8,0,0.1380323667,0.1380323667,42
560,120,4,28,44,7129,7111,120,28.8,0,0.09405676531,0.09405676531,44
560,120,4,30,46,7129,7111,120,28.8,0,0.05964209928,0.05964209928,46
560,120,4,32,48,7129,7111,120,28.8,0,0.03412557986,0.03412557986,48
560,120,4,34,50,7129,7111,120,28.8,0,0.01658336218,0.01658336218,50
560,120,4,36,52,7129,7111,120,28.8,0,0.005920326658,0.005920326658,52
560,120,4,38,54,7129,7111,120,28.8,0,0.0009510613787,0.0009510613787,54
560,120,4,40,56,7129,7111,120,28.8,0,0.0004710721808,0.0002037714719,49.14285714
560,120,4,42,58,7129,7111,120,28.8,0,0.003315173336,0.0002070422557,47.34693878
560,120,4,44,60,7129,7111,120,28.8,0,0.008405370546,0.0002957240877,46.53061224
560,120,4,46,62,7129,7111,120,28.8,0,0.01478383199,0.0002011153917,46.81632653
560,120,4,48,64,7129,7111,120,28.8,0,0.02163545037,0.0002181767699,47.02040816
560,120,5,24,44,7129,7111,120,28.8,0,0.2023859727,0.2023859727,44
560,120,5,26,46,7129,7111,120,28.8,0,0.1470785633,0.1470785633,46
560,120,5,28,48,7129,7111,120,28.8,0,0.1015342029,0.1015342029,48
560,120,5,30,50,7129,7111,120,28.8,0,0.06553410261,0.06553410261,50
560,120,5,32,52,7129,7111,120,28.8,0,0.03848894444,0.03848894444,52
560,120,5,34,54,7129,7111,120,28.8,0,0.01953605242,0.01953605242,54
560,120,5,36,56,7129,7111,120,28.8,0,0.007622937751,0.007622937751,56
560,120,5,38,58,7129,7111,120,28.8,0,0.001592052701,0.001592052701,58
560,120,5,40,60,7129,7111,120,28.8,0,0.0002524358019,0.0002029793882,53.87755102
560,120,5,42,62,7129,7111,120,28.8,0,0.002440643114,0.0002012220614,50.6122449
560,120,5,44,64,7129,7111,120,28.8,0,0.007069885157,0.0002000463053,49.63265306
560,120,5,46,66,7129,7111,120,28.8,0,0.01316603269,0.0003253334845,49.83673469
560,120,5,48,68,7129,7111,120,28.8,0,0.01989209769,0.0003270455373,48.57142857
560,120,6,24,48,7129,7111,120,28.8,0,0.2144005466,0.2144005466,48
560,120,6,26,50,7129,7111,120,28.8,0,0.1575961378,0.1575961378,50
560,120,6,28,52,7129,7111,120,28.8,0,0.1103737014,0.1103737014,52
560,120,6,30,54,7129,7111,120,28.8,0,0.07262615319,0.07262615319,54
560,120,6,32,56,7129,7111,120,28.8,0,0.04385832008,0.04385832008,56
560,120,6,34,58,7129,7111,120,28.8,0,0.02328215206,0.02328215206,58
560,120,6,36,60,7129,7111,120,28.8,0,0.009903212788,0.009903212788,60
560,120,6,38,62,7129,7111,120,28.8,0,0.002603232088,0.002603232088,62
560,120,6,40,64,7129,7111,120,28.8,0,0.0002144123065,0.0002144123065,64
560,120,6,42,66,7129,7111,120,28.8,0,0.00157996642,0.0002012815351,53.87755102
560,120,6,44,68,7129,7111,120,28.8,0,0.005609810674,0.0002175989912,52.73469388
560,120,6,46,70,7129,7111,120,28.8,0,0.01131477247,0.0002486504316,51.42857143
560,120,6,48,72,7129,7111,120,28.8,0,0.0178363907,0.0002029246724,51.42857143
564,128,4,24,40,7129,7111,120,28.8,0,0.1015745329,0.1015745329,40
564,128,4,26,42,7129,7111,120,28.8,0,0.05910317188,0.05910317188,42
564,128,4,28,44,7129,7111,120,28.8,0,0.02924119934,0.02924119934,44
564,128,4,30,46,7129,7111,120,28.8,0,0.01068512733,0.01068512733,46
564,128,4,32,48,7129,7111,120,28.8,0,0.001748653585,0.001748653585,48
564,128,4,34,50,7129,7111,120,28.8,0,0.0005304899005,0.0002004366624,43.87755102
564,128,4,36,52,7129,7111,120,28.8,0,0.005067166412,0.0002378627791,41.3877551
564,128,4,38,54,7129,7111,120,28.8,0,0.01346018611,0.0002991230002,40.7755102
564,128,4,40,56,7129,7111,120,28.8,0,0.02397711879,0.0002153421169,41.14285714
564,128,4,42,58,7129,7111,120,28.8,0,0.03512353586,0.0003779396588,41.42857143
564,128,4,44,60,7129,7111,120,28.8,0,0.04568749926,0.0004257841039,40.40816327
564,128,4,46,62,7129,7111,120,28.8,0,0.05475762718,0.0003586508023,40.48979592
564,128,4,48,64,7129,7111,120,28.8,0,0.06172132951,0.0003584035252,40.48979592
564,128,5,24,44,7129,7111,120,28.8,0,0.1106640489,0.1106640489,44
564,128,5,26,46,7129,7111,120,28.8,0,0.06606805983,0.06606805983,46
564,128,5,28,48,7129,7111,120,28.8,0,0.03409874569,0.03409874569,48
564,128,5,30,50,7129,7111,120,28.8,0,0.01357508304,0.01357508304,50
564,128,5,32,52,7129,7111,120,28.8,0,0.002902480389,0.002902480389,52
564,128,5,34,54,7129,7111,120,28.8,0,0.0002402736008,0.0002012273127,49.59183673
564,128,5,36,56,7129,7111,120,28.8,0,0.003656339914,0.0002063216251,44.57142857
564,128,5,38,58,7129,7111,120,28.8,0,0.01125891972,0.0002007781952,43.79591837
564,128,5,40,60,7129,7111,120,28.8,0,0.02129998448,0.0003841797302,42.85714286
564,128,5,42,62,7129,7111,120,28.8,0,0.03225393181,0.0002325673376,43.02040816
564,128,5,44,64,7129,7111,120,28.8,0,0.04286447712,0.0002036660754,43.10204082
564,128,5,46,66,7129,7111,120,28.8,0,0.05217041701,0.0002013486629,43.10204082
564,128,5,48,68,7129,7111,120,28.8,0,0.05950824546,0.0002117879566,43.02040816
564,128,6,24,48,7129,7111,120,28.8,0,0.1212746962,0.1212746962,48
564,128,6,26,50,7129,7111,120,28.8,0,0.0744087123,0.0744087123,50
564,128,6,28,52,7129,7111,120,28.8,0,0.04010949419,0.04010949419,52
564,128,6,30,54,7129,7111,120,28.8,0,0.01734893912,0.01734893912,54
564,128,6,32,56,7129,7111,120,28.8,0,0.004650879474,0.004650879474,56
564,128,6,34,58,7129,7111,120,28.8,0,0.0002587516273,0.0002587516273,58
564,128,6,36,60,7129,7111,120,28.8,0,0.002291240086,0.0002366143817,47.75510204
564,128,6,38,62,7129,7111,120,28.8,0,0.008874729456,0.000215118268,46.81632653
564,128,6,40,64,7129,7111,120,28.8,0,0.01825587381,0.0002300923401,45.71428571
564,128,6,42,66,7129,7111,120,28.8,0,0.02888038276,0.0002150362135,45.79591837
564,128,6,44,68,7129,7111,120,28.8,0,0.03945013966,0.0002616257787,45.79591837
564,128,6,46,70,7129,7111,120,28.8,0,0.0489514636,0.0002576912927,45.71428571
564,128,6,48,72,7129,7111,120,28.8,0,0.05666182987,0.0002154751949,45.55102041
568,136,4,24,40,7129,7111,120,28.8,0,0.03751631688,0.03751631688,40
568,136,4,26,42,7129,7111,120,28.8,0,0.01239576919,0.01239576919,42
568,136,4,28,44,7129,7111,120,28.8,0,0.00132522413,0.00132522413,44
568,136,4,30,46,7129,7111,120,28.8,0,0.0015335309,0.0002026623186,38.48979592
568,136,4,32,48,7129,7111,120,28.8,0,0.009993014325,0.000207715881,37.2244898
568,136,4,34,50,7129,7111,120,28.8,0,0.02369212414,0.000200943478,36.73469388
568,136,4,36,52,7129,7111,120,28.8,0,0.03985599765,0.000487726904,36.08163265
568,136,4,38,54,7129,7111,120,28.8,0,0.05610872489,0.0002326289114,36.36734694
568,136,4,40,56,7129,7111,120,28.8,0,0.07057532778,0.0002031701752,36.57142857
568,136,4,42,58,7129,7111,120,28.8,0,0.08192761909,0.0002383017006,36.69387755
568,136,4,44,60,7129,7111,120,28.8,0,0.08937802835,0.0002582821742,36.73469388
568,136,4,46,62,7129,7111,120,28.8,0,0.09263505184,0.000238518778,36.69387755
568,136,4,48,64,7129,7111,120,28.8,0,0.09182862131,0.0002035441287,36.57142857
568,136,5,24,44,7129,7111,120,28.8,0,0.04395323246,0.04395323246,44
568,136,5,26,46,7129,7111,120,28.8,0,0.01610967439,0.01610967439,46
568,136,5,28,48,7129,7111,120,28.8,0,0.002566889322,0.002566889322,48
568,136,5,30,50,7129,7111,120,28.8,0,0.0006942197538,0.0002003741247,42.85714286
568,136,5,32,52,7129,7111,120,28.8,0,0.007549282099,0.0002430893199,40.32653061
568,136,5,34,54,7129,7111,120,28.8,0,0.02015304663,0.0003510399162,39.67346939
568,136,5,36,56,7129,7111,120,28.8,0,0.03571841,0.0002041539388,38.85714286
568,136,5,38,58,7129,7111,120,28.8,0,0.0518209265,0.0002783509578,39.06122449
568,136,5,40,60,7129,7111,120,28.8,0,0.06651263318,0.0004208412491,39.18367347
568,136,5,42,62,7129,7111,120,28.8,0,0.07837590951,0.0004878470658,39.2244898
568,136,5,44,64,7129,7111,120,28.8,0,0.0865294804,0.0004494800013,39.18367347
568,136,5,46,66,7129,7111,120,28.8,0,0.09059043255,0.0003353554378,39.06122449
568,136,5,48,68,7129,7111,120,28.8,0,0.09060668131,0.0002205094477,38.85714286
568,136,6,24,48,7129,7111,120,28.8,0,0.05178381173,0.05178381173,48
568,136,6,26,50,7129,7111,120,28.8,0,0.02093144263,0.02093144263,50
568,136,6,28,52,7129,7111,120,28.8,0,0.004563698049,0.004563698049,52
568,136,6,30,54,7129,7111,120,28.8,0,0.0002313164091,0.0002003337775,49.59183673
568,136,6,32,56,7129,7111,120,28.8,0,0.00511469592,0.0002047861858,43.42857143
568,136,6,34,58,7129,7111,120,28.8,0,0.01629651062,0.0004133917266,41.42857143
568,136,6,36,60,7129,7111,120,28.8,0,0.03099745468,0.0002319339396,41.63265306
568,136,6,38,62,7129,7111,120,28.8,0,0.04675677413,0.0005266860043,41.75510204
568,136,6,40,64,7129,7111,120,28.8,0,0.06155605814,0.0005806915068,40.48979592
568,136,6,42,66,7129,7111,120,28.8,0,0.07388607734,0.0006363418876,40.40816327
568,136,6,44,68,7129,7111,120,28.8,0,0.08276268352,0.0006913868231,41.63265306
568,136,6,46,70,7129,7111,120,28.8,0,0.08769982807,0.0004454003374,41.42857143
568,136,6,48,72,7129,7111,120,28.8,0,0.08864951899,0.0002359205028,41.14285714
