@RELATION appendixE_04_explore

@ATTRIBUTE omega_m_MHz NUMERIC
@ATTRIBUTE omega_a_MHz NUMERIC
@ATTRIBUTE sigma_ns NUMERIC
@ATTRIBUTE T_active_ns NUMERIC
@ATTRIBUTE T_total_ns NUMERIC
@ATTRIBUTE omega_r_MHz NUMERIC
@ATTRIBUTE omega_p_MHz NUMERIC
@ATTRIBUTE g_qr_MHz NUMERIC
@ATTRIBUTE J_MHz NUMERIC
@ATTRIBUTE detuning_MHz NUMERIC
@ATTRIBUTE leakage_final NUMERIC
@ATTRIBUTE min_leakage NUMERIC
@ATTRIBUTE min_leakage_time_ns NUMERIC

@DATA
564,128,5,34.5,54.5,7129,7111,120,28.8,0,0.000599796535,0.0002034005173,46.71428571
524.9716905,136.4034005,4.018167548,33.20617249,49.27884268,7129,7111,120,28.8,-86.46001945,0.9467507137,0.9380551679,37.21055468
558.1894724,104.2116003,4.150556489,46.12969043,62.73191639,7129,7111,120,28.8,12.16734457,0.3693545959,0.3687505839,57.61094362
554.2653348,119.1287177,7.01014659,37.67070254,65.7112889,7129,7111,120,28.8,-10.59804811,0.2616825914,0.255437999,50.95977506
539.5819622,103.0052217,6.054358905,27.58220819,51.79964381,7129,7111,120,28.8,-23.84129741,0.7882605135,0.7757239364,38.05688117
576.0641093,114.8987474,5.472925808,29.53482985,51.42653308,7129,7111,120,28.8,37.22947117,0.8678812255,0.8624311165,39.88180117
577.0373098,133.5519837,3.196862312,29.66771297,42.45516222,7129,7111,120,28.8,20.52263591,0.4981254069,0.460607471,27.72582023
599.0848819,118.462628,3.256618275,31.71975768,44.74623078,7129,7111,120,28.8,79.70713583,0.959518252,0.9536156013,36.52753533
582.5626443,111.673019,7.056171034,23.60824231,51.83292645,7129,7111,120,28.8,53.45226961,0.9600148812,0.9541373276,32.79225959
582.6364402,151.7981164,4.08489422,47.64331699,63.98289387,7129,7111,120,28.8,13.47476397,0.1442513504,0.1442087385,62.67712052
590.9618596,117.5825392,3.374798073,34.76937109,48.26856338,7129,7111,120,28.8,64.34117999,0.9330517948,0.9279630471,40.3879816
600.6927089,130.3453166,7.182628211,37.29875901,66.02927186,7129,7111,120,28.8,71.04010112,0.9339563669,0.9278637708,47.16376561
558.6979782,103.0921652,4.876463168,49.87384369,69.37969636,7129,7111,120,28.8,14.30379114,0.4477788824,0.4472572319,63.71604768
556.4550442,140.8431347,4.824080484,43.49222168,62.78854361,7129,7111,120,28.8,-27.93304616,0.5115764448,0.5002880685,52.53735282
593.5316035,105.7467866,6.354502689,34.18834713,59.60635789,7129,7111,120,28.8,81.31642055,0.976901218,0.9742092811,42.57596992
555.8033014,142.6198322,3.715864076,33.67431762,48.53777392,7129,7111,120,28.8,-31.01322944,0.6111492259,0.6077159407,43.58493985
527.8403379,103.0820058,5.195090878,45.10208574,65.88244925,7129,7111,120,28.8,-47.40132993,0.9107508985,0.9054167501,52.43705144
565.0735073,112.2202943,7.894742189,45.16864256,76.74761132,7129,7111,120,28.8,17.9267204,0.5369840144,0.534123416,64.21738906
580.7471224,154.115497,5.945360034,38.29163568,62.07307581,7129,7111,120,28.8,7.378747737,0.1851030614,0.07438321879,32.9367341
561.847719,136.0741543,4.803128625,28.68328831,47.89580281,7129,7111,120,28.8,-12.3787164,0.250934591,0.2329273002,35.18875309
553.2219844,103.9183368,6.849500294,37.47521529,64.87321647,7129,7111,120,28.8,2.525631969,0.1556038167,0.1556038167,64.87321647
593.2782686,109.8392687,3.207317361,48.07156416,60.90083361,7129,7111,120,28.8,76.71726849,0.9494811212,0.944435257,52.20071452
570.0499789,139.1083104,5.063041978,45.10086881,65.35303673,7129,7111,120,28.8,0.9916473551,0.1015618367,0.001923290027,37.34459241
521.4322054,100.4069375,5.601573802,30.31795194,52.72424715,7129,7111,120,28.8,-57.54252658,0.9645158891,0.9593731042,37.66017654
568.2938551,124.0931081,3.218867438,49.52570676,62.40117651,7129,7111,120,28.8,12.49460213,0.2527379437,0.2527379437,62.40117651
528.9003871,140.6584591,6.693050995,36.92122098,63.69342497,7129,7111,120,28.8,-82.85768488,0.9364801655,0.9301424224,45.49530355
586.3938102,141.2168025,7.956828982,25.31520513,57.14252106,7129,7111,120,28.8,31.57081789,0.7723289445,0.7469162134,34.98521698
562.9172327,159.7730115,4.004712009,32.46105681,48.47990485,7129,7111,120,28.8,-33.93854601,0.5738150651,0.563020116,41.55420416
600.5816903,121.8591092,5.621446185,23.86806892,46.35385366,7129,7111,120,28.8,79.30427132,0.9730172245,0.9675793732,30.27190443
564.7997007,142.8925236,7.073019567,23.30082202,51.59290029,7129,7111,120,28.8,-13.29312228,0.31027042,0.2992545491,40.01082063
600.3575579,151.9002569,3.041171886,35.35377671,47.51846425,7129,7111,120,28.8,48.81485896,0.7538463856,0.7325449563,35.88128933
567.6477906,107.2946057,3.445966731,46.83725313,60.62112005,7129,7111,120,28.8,28.00097545,0.7032308839,0.7009566242,54.43529148
580.1376403,111.0185483,6.267866064,30.98291458,56.05437884,7129,7111,120,28.8,49.25673226,0.9321137987,0.924607735,41.18280895
602.3716357,112.8681964,3.198982798,29.11538475,41.91131594,7129,7111,120,28.8,91.875075,0.976969351,0.9724937064,32.50265318
572.5753133,119.6028532,4.845955225,25.11817409,44.50199499,7129,7111,120,28.8,25.54777337,0.7139482232,0.6910054864,30.8789353
585.1676501,134.2201297,6.523914224,35.70849269,61.80414959,7129,7111,120,28.8,36.11517036,0.7577598407,0.7440631892,47.92974866
520.9238558,118.4113617,5.663993971,39.59918925,62.25516513,7129,7111,120,28.8,-76.56365007,0.9527825909,0.9477164462,45.73848867
606.3293372,126.4754786,4.011175017,44.79495101,60.83965108,7129,7111,120,28.8,86.18319588,0.9428820368,0.9363928326,48.42339576
600.9393107,143.1267531,7.62276827,28.62812631,59.11919939,7129,7111,120,28.8,58.75186826,0.9096615101,0.8987599876,39.81497102
556.2905439,155.3085433,6.395399711,48.6810976,74.26269644,7129,7111,120,28.8,-42.72745547,0.6579101895,0.6418661454,59.10704411
572.4635886,135.7214887,3.354279176,38.70621414,52.12333085,7129,7111,120,28.8,9.20568848,0.190705931,0.1330353567,32.97598482
554.9430747,114.4669369,4.889285169,49.25387424,68.81101492,7129,7111,120,28.8,-4.580787503,0.06121878042,0.05674063672,54.76795065
585.2468726,138.2677197,3.86382469,30.51996938,45.97526814,7129,7111,120,28.8,32.22602558,0.6896686833,0.6869134678,40.34564347
530.8216168,152.6478335,7.765588598,33.96739812,65.02975251,7129,7111,120,28.8,-91.00459982,0.940461924,0.934862807,43.79554761
566.31775,123.3968257,5.216278676,35.1749048,56.0400195,7129,7111,120,28.8,9.238674378,0.1848856889,0.1796772147,44.60328083
583.1585011,125.4391516,4.381467709,26.66182087,44.18769171,7129,7111,120,28.8,40.87785055,0.8569177397,0.8509442398,23.44653029
527.946943,126.0722324,5.236883662,35.84145315,56.7889878,7129,7111,120,28.8,-70.17834639,0.9368416357,0.9294959279,42.88148058
529.8140603,147.0602707,4.984387081,43.85556751,63.79311584,7129,7111,120,28.8,-87.43215018,0.9151364313,0.9064585109,49.47221228
595.2598548,120.2953192,6.591959268,23.16820104,49.53603811,7129,7111,120,28.8,70.22439031,0.9703371502,0.9650598219,32.35006571
588.9730888,123.1167145,5.63269775,40.84062042,63.37141142,7129,7111,120,28.8,54.82946319,0.8939392164,0.885511233,49.1451762
580.7729566,159.4016108,5.730244907,45.69124895,68.61222858,7129,7111,120,28.8,2.144302513,0.06374447747,0.006218616456,32.20573994
520.9373612,125.8126294,4.362375763,38.6523488,56.10185185,7129,7111,120,28.8,-83.93790707,0.9501382593,0.9440585743,43.50755858
574.6421922,156.8948668,4.41853428,49.80981727,67.4839544,7129,7111,120,28.8,-7.610482451,0.05069193699,0.05069193699,67.4839544
540.5023296,124.0093876,5.764597947,31.63354864,54.69194043,7129,7111,120,28.8,-43.00472835,0.8657409142,0.8550821627,42.41415788
584.150393,106.6938486,6.457303604,49.2212247,75.05043912,7129,7111,120,28.8,61.60693735,0.937908842,0.9333406054,58.20238135
601.9486408,108.2105299,6.985917583,29.0865368,57.03020714,7129,7111,120,28.8,95.68675177,0.9856618221,0.9837409095,37.24421691
576.7129718,128.7566479,4.574733222,25.01147976,43.31041264,7129,7111,120,28.8,24.66929567,0.6440086672,0.6132834217,30.05212306
534.8225896,150.2248677,5.453597856,34.25562984,56.07002126,7129,7111,120,28.8,-80.57968857,0.9206957464,0.910621816,41.19430133
570.3036063,154.1816907,5.122022626,49.35058915,69.83867965,7129,7111,120,28.8,-13.5744782,0.1325312107,0.131761179,64.13756295
585.3840177,121.1527,4.169785152,43.20212575,59.88126636,7129,7111,120,28.8,49.61533537,0.8591211323,0.8520325658,50.10473308
594.5339639,145.0751156,5.423638886,28.22030558,49.91486112,7129,7111,120,28.8,43.99281225,0.8167675624,0.8026516582,38.70948414
601.9201942,137.9190609,4.549101135,22.56449712,40.76090166,7129,7111,120,28.8,65.92132757,0.938228573,0.9265993494,29.11492976
603.962561,111.0998262,3.030284364,23.50809737,35.62923483,7129,7111,120,28.8,96.82529568,0.9842382399,0.9809190152,23.99519896
600.2656385,105.899945,4.916581974,41.36510688,61.03143477,7129,7111,120,28.8,94.63133196,0.9773501408,0.9748022783,46.08496095
559.0603807,142.352507,6.661913601,34.91432422,61.56197862,7129,7111,120,28.8,-24.23174566,0.5552959379,0.5511920214,51.51104334
547.6132786,132.5106641,3.00970308,38.61262666,50.65143898,7129,7111,120,28.8,-37.28410693,0.6940683142,0.683590438,43.41551913
544.7647264,115.9378565,7.393991279,32.13181375,61.70777887,7129,7111,120,28.8,-26.40840374,0.7608513649,0.7476060317,41.55830006
576.7332911,106.141228,5.6922028,23.61193497,46.38074617,7129,7111,120,28.8,47.32535427,0.9507650088,0.9440260265,28.3963752
575.0086926,120.9346668,4.398596219,49.61227333,67.20665821,7129,7111,120,28.8,29.08271848,0.6228764174,0.6145310798,57.60570703
565.3790816,147.9380536,7.577647095,22.97274084,53.28332922,7129,7111,120,28.8,-17.17989031,0.4345018153,0.4051248779,36.97210599
602.3349328,113.4723571,5.543588292,26.76579946,48.94015263,7129,7111,120,28.8,91.19750852,0.9816929604,0.9785618692,32.95969463
585.7207797,134.205422,6.017080084,23.28462332,47.35294366,7129,7111,120,28.8,37.23613745,0.8404296615,0.8135809152,28.99159816
556.6378513,102.2037767,3.081304266,24.3542425,36.67945956,7129,7111,120,28.8,11.07192582,0.5269511809,0.5269511809,36.67945956
559.460599,138.5538684,3.42759774,46.54072294,60.2511139,7129,7111,120,28.8,-19.63267041,0.3177915759,0.3172961057,56.56227019
599.4854482,122.1092126,6.046197583,39.38709695,63.57188728,7129,7111,120,28.8,76.86168379,0.9490677668,0.9438258493,46.70587637
580.4795174,125.4418359,4.217663271,29.20795835,46.07861143,7129,7111,120,28.8,35.51719893,0.8005229492,0.7968177751,38.55557283
538.3363566,152.4945209,4.930239323,42.85215691,62.5731142,7129,7111,120,28.8,-75.82180765,0.8799709116,0.868441555,48.52608856
552.9382157,119.800091,7.545887,27.78113447,57.96468247,7129,7111,120,28.8,-13.92365963,0.4473057185,0.441459786,46.13515544
599.8058243,114.4707433,4.376175627,31.25693175,48.76163426,7129,7111,120,28.8,85.14090527,0.9721355631,0.9677280172,36.82000954
548.9019203,152.9193357,7.984891198,44.99586398,76.93542877,7129,7111,120,28.8,-55.11549523,0.8014012686,0.78935053,56.52398849
540.3109549,150.8002149,4.085321931,43.07213559,59.41342331,7129,7111,120,28.8,-70.178305,0.8601896354,0.8473432109,47.28823488
540.208852,149.6037755,4.029912472,28.81959672,44.93924661,7129,7111,120,28.8,-69.18607158,0.9048892008,0.8895871119,31.18233438
557.9080309,108.2566754,5.514563969,39.58866337,61.64691925,7129,7111,120,28.8,7.55938646,0.1983559663,0.1983356666,59.13071846
537.2975644,103.3212079,3.58535848,29.56026333,43.90169725,7129,7111,120,28.8,-28.72607904,0.8222758389,0.8132961974,29.56644917
604.2645454,111.1471184,4.866716022,25.88913637,45.35600046,7129,7111,120,28.8,97.38197235,0.98509672,0.98226176,30.54587786
607.5615561,139.9864981,6.972062624,40.14986859,68.03811908,7129,7111,120,28.8,75.13661416,0.9181373254,0.9110742774,48.59865649
556.2967525,122.68969,4.510664123,44.57419187,62.61684836,7129,7111,120,28.8,-10.09618504,0.2156078555,0.2023376896,43.44842539
564.0455209,148.2003406,7.30966517,40.26156927,69.50022995,7129,7111,120,28.8,-20.10929871,0.3972498722,0.3941358942,60.98999771
544.1899423,141.1336731,4.207825935,28.37640484,45.20770859,7129,7111,120,28.8,-52.75378848,0.8618868669,0.8438489877,35.05903931
592.0222798,154.7506436,7.496302823,45.03669257,75.02190386,7129,7111,120,28.8,29.29391606,0.5070184314,0.4868386217,56.64919271
559.2450686,148.295105,6.828086289,26.66611845,53.9784636,7129,7111,120,28.8,-29.80496786,0.6953835015,0.6637206361,31.94643764
523.8486298,139.3465009,7.828873285,46.62458065,77.94007379,7129,7111,120,28.8,-91.64924134,0.9355969073,0.9314813788,57.26209503
589.1839117,109.8973852,7.118244191,23.17616879,51.64914556,7129,7111,120,28.8,68.47043818,0.978105045,0.9744172474,32.67599005
557.8090786,133.9666318,6.093737868,46.81827761,71.19322909,7129,7111,120,28.8,-18.34847458,0.3631111222,0.3616267604,63.92861387
539.00384,143.3772615,5.773548213,37.72883978,60.82303263,7129,7111,120,28.8,-65.3695815,0.8887578373,0.877542016,45.92759607
531.8669895,100.6833362,4.797402925,26.98440848,46.17402017,7129,7111,120,28.8,-36.9493573,0.913932952,0.9059873588,28.26980827
580.8500635,114.2357924,7.806496858,34.82569377,66.0516812,7129,7111,120,28.8,47.46433456,0.9166355827,0.9090985707,47.17977229
588.5267058,138.7640979,6.364793424,40.39635968,65.85553338,7129,7111,120,28.8,38.28931368,0.7320053919,0.7129169477,49.72764765
598.2925374,100.0703654,3.80631862,27.05381862,42.2790931,7129,7111,120,28.8,96.51470945,0.988273846,0.9859948906,31.06219085
572.8179158,130.5885958,6.777868915,30.20187463,57.31335029,7129,7111,120,28.8,15.04723569,0.3882070027,0.3671794191,40.93810735
576.5412297,156.7106236,7.220706977,35.3564449,64.23927281,7129,7111,120,28.8,-3.628164255,0.1500441904,0.0202943171,36.70815589
521.0899143,104.268809,6.20127405,33.93183202,58.73692822,7129,7111,120,28.8,-62.08898033,0.9622478327,0.9577578339,41.95494873
549.3389538,126.4286211,3.891482216,35.26299069,50.82891955,7129,7111,120,28.8,-27.75071357,0.6570096144,0.6552968752,45.64229511
600.3477787,115.2877144,3.893697203,49.09497047,64.66975928,7129,7111,120,28.8,85.40784303,0.9531241616,0.9484740484,52.79164023
554.5270719,151.6170025,6.864284476,38.25992524,65.71706315,7129,7111,120,28.8,-42.56285863,0.7404816949,0.7199434541,48.28192395
593.0793218,127.9559005,7.153957877,27.64218613,56.25801764,7129,7111,120,28.8,58.20274304,0.9360545566,0.9277164124,37.8880527
522.88746,154.3606327,3.027615803,35.54295561,47.65341882,7129,7111,120,28.8,-108.5857128,0.9429353469,0.9332010411,37.92823131
558.0402601,118.0800311,5.395051288,35.11323974,56.69344489,7129,7111,120,28.8,-1.999510846,0.03259168934,0.03259168934,56.69344489
602.6378831,154.4705222,4.731019473,30.05310096,48.97717886,7129,7111,120,28.8,50.80524393,0.8137035956,0.7884543068,36.98276771
537.8576857,139.2399017,5.002395294,42.1027912,62.11237237,7129,7111,120,28.8,-63.52453029,0.8753536598,0.8626694145,48.16877858
589.4643461,100.3413869,6.669202481,32.84336772,59.52017765,7129,7111,120,28.8,78.58730531,0.9807965543,0.9785537541,41.2997151
568.6037728,114.8703286,4.478207562,44.99040006,62.90323031,7129,7111,120,28.8,22.33721705,0.5799833526,0.5787389972,57.76827273
547.6057907,135.4366157,7.038407766,39.01247453,67.16610559,7129,7111,120,28.8,-40.2250343,0.7817132041,0.7653152707,49.34652656
557.2604537,107.9177374,5.448669807,48.45278563,70.24746486,7129,7111,120,28.8,6.603170021,0.1327817551,0.1325865713,64.51297793
560.366574,119.2399274,7.883971688,33.93231647,65.46820322,7129,7111,120,28.8,1.493220505,0.04449276222,0.04449276222,65.46820322
528.7268878,149.6264897,4.969076727,27.14653533,47.02284224,7129,7111,120,28.8,-92.1727141,0.9522236843,0.9439918311,32.62809461
569.7355494,153.0391636,4.092728175,24.58095526,40.95186796,7129,7111,120,28.8,-13.56806483,0.2480856687,0.2027816263,28.41558185
528.6763951,125.2544424,5.426224651,42.40605753,64.11095614,7129,7111,120,28.8,-67.9016521,0.9218500152,0.9140523044,48.41031382
535.0733539,118.6231812,4.807627495,26.65243886,45.88294884,7129,7111,120,28.8,-48.47647331,0.9154441172,0.9085053522,35.58269502
528.6512082,150.6303473,6.704711911,31.34749778,58.16634543,7129,7111,120,28.8,-93.32793091,0.948290699,0.9419361187,39.17325304
589.3864048,143.7025767,3.675277344,43.18219083,57.88330021,7129,7111,120,28.8,35.07023297,0.6033160794,0.5866869831,47.25167364
571.0347377,156.7372422,6.22467075,31.03240404,55.93108704,7129,7111,120,28.8,-14.66776687,0.3330244357,0.2452409918,31.96062117
586.9947951,110.4689235,7.102329251,27.77198807,56.18130508,7129,7111,120,28.8,63.52066675,0.9669962679,0.9624376306,37.83638913
551.7051253,106.8064146,6.130417918,32.2218489,56.74352057,7129,7111,120,28.8,-3.39616402,0.2112066729,0.2112066729,56.74352057
591.2327498,157.8407412,7.580953938,38.78998076,69.11379651,7129,7111,120,28.8,24.62475836,0.4531694692,0.442290173,56.41942573
605.5888279,145.3452905,3.178118955,38.0974977,50.80997352,7129,7111,120,28.8,65.83236523,0.8617158741,0.8468700033,42.51446764
591.560105,111.2255953,4.163185693,42.76516866,59.41791143,7129,7111,120,28.8,71.89461471,0.9497964338,0.9444392228,47.29180706
578.6371434,119.9571799,6.394800181,47.4469262,73.02612692,7129,7111,120,28.8,37.31710685,0.7804738927,0.768818619,56.63250659
559.4022645,152.342794,6.445093468,27.10704538,52.88741925,7129,7111,120,28.8,-33.53826502,0.7196898384,0.7026154877,30.22138243
584.2657105,105.8843465,7.534175954,42.90618074,73.04288455,7129,7111,120,28.8,62.64707454,0.9516185914,0.9479737065,53.66416008
576.6624687,131.0057832,6.650394081,37.9412091,64.54278542,7129,7111,120,28.8,22.31915423,0.5540734462,0.5507754841,55.3223875
596.5684632,121.7840558,4.846344206,47.30308735,66.68846418,7129,7111,120,28.8,71.35287059,0.9256399529,0.9191131415,53.07857353
591.3717741,147.9642325,7.168664474,49.63074418,78.30540208,7129,7111,120,28.8,34.77931569,0.5975141193,0.5846782473,62.32470778
565.1263365,159.3918088,4.886398695,42.52893153,62.07452631,7129,7111,120,28.8,-29.1391357,0.450227959,0.4276084069,49.40625564
576.7075303,158.0754297,3.128511973,23.07952116,35.59356905,7129,7111,120,28.8,-4.660369087,0.04325042808,0.02479431957,26.87677663
590.8932318,127.8498809,7.437498729,32.50021182,62.25020673,7129,7111,120,28.8,53.93658273,0.9119218356,0.9025469731,43.194021
566.1730808,131.0301577,3.472901749,22.02493663,35.91654362,7129,7111,120,28.8,1.316003972,0.1216144668,0.1216144668,35.91654362
565.3854968,131.420676,7.318071216,27.08711759,56.35940245,7129,7111,120,28.8,-0.6496824732,0.04129995655,0.04129995655,56.35940245
544.4130363,151.1523931,5.696264076,41.79644351,64.58149981,7129,7111,120,28.8,-62.32632047,0.8431014258,0.8286060989,48.76562231
605.1779231,108.7164989,7.78930289,49.15977315,80.31698471,7129,7111,120,28.8,101.6393473,0.9759620039,0.9745000414,59.00839693
577.9088787,100.134558,6.355375469,46.63754474,72.05904662,7129,7111,120,28.8,55.68319942,0.9425130405,0.9381417843,55.88252595
531.1626031,112.0886369,7.047170449,29.32763573,57.51631753,7129,7111,120,28.8,-49.76343072,0.9388847986,0.9322896735,41.08308395
528.2728309,103.9618552,6.225886386,37.00403797,61.90758352,7129,7111,120,28.8,-47.41619335,0.9287921408,0.9216320614,45.48312258
592.6408147,144.8738766,3.013538724,48.12226651,60.1764214,7129,7111,120,28.8,40.4077529,0.6283942917,0.6235105235,54.03597024
603.9755783,152.7805379,6.843344301,32.74517317,60.11855038,7129,7111,120,28.8,55.1706186,0.8523645365,0.8363397487,41.71491251
602.1211813,114.8898127,5.101072756,35.66137717,56.06566819,7129,7111,120,28.8,89.35254991,0.9714537007,0.967700281,41.19110316
581.9561333,141.9065772,6.467152783,39.46072494,65.32933607,7129,7111,120,28.8,22.00568944,0.4662317571,0.4629813564,57.32982553
589.0322273,130.5178925,4.978953802,29.34613347,49.26194868,7129,7111,120,28.8,47.54656209,0.8715509533,0.8590243177,38.20314387
596.1386525,154.5443299,6.58975233,26.71125336,53.07026269,7129,7111,120,28.8,37.73297501,0.7619909108,0.7499109723,40.07346366
603.0202298,102.7394131,7.714579845,29.62739825,60.48571763,7129,7111,120,28.8,103.3010466,0.9899748322,0.9888065567,39.50087682
521.6534392,137.7676894,4.968350776,41.71166894,61.58507204,7129,7111,120,28.8,-94.46081097,0.9433805638,0.9371886286,46.50301358
592.6405808,121.6622891,7.563984707,25.8418214,56.09776023,7129,7111,120,28.8,63.61887258,0.9594278828,0.9537408839,36.63527199
553.8404435,141.2901379,3.871920488,31.77878102,47.26646297,7129,7111,120,28.8,-33.60925082,0.6741030386,0.669678352,41.47873281
600.6302563,128.9088007,6.82701003,22.14500778,49.4530479,7129,7111,120,28.8,72.35171185,0.967353528,0.9613450154,31.28662214
609.4469827,103.3865835,5.783122,39.08519971,62.21768771,7129,7111,120,28.8,115.5073819,0.9873336473,0.98598689,45.71095424
594.8297721,121.1657078,5.785133455,38.59270707,61.73324089,7129,7111,120,28.8,68.49383636,0.9386689846,0.9322861658,46.61489618
589.9037657,114.9708618,4.070841397,25.84319133,42.12655692,7129,7111,120,28.8,64.83666963,0.9569629652,0.9485724059,30.95012345
594.9093152,135.8427341,4.465380727,30.45886965,48.32039256,7129,7111,120,28.8,53.97589623,0.8787557163,0.8611100558,36.48682703
574.2856309,108.9623562,6.853871401,25.51746624,52.93295184,7129,7111,120,28.8,39.60890566,0.9226734838,0.9129216026,33.48819402
568.5751475,132.1101844,3.533775632,36.84814934,50.98325187,7129,7111,120,28.8,5.04011062,0.07664931142,0.04706570504,36.41660848
537.9213361,116.312683,7.927775959,24.5295983,56.24070213,7129,7111,120,28.8,-40.47001076,0.9198991185,0.9093557134,35.58085237
575.6779219,120.6056243,5.024139555,22.50093496,42.59749318,7129,7111,120,28.8,30.75021948,0.8040090776,0.7775358303,28.68810765
541.5297173,151.9748509,5.060409848,47.43908915,67.68072855,7129,7111,120,28.8,-68.91541621,0.8447614563,0.8321377483,53.86833497
602.3297219,158.1728336,5.055066441,42.83547596,63.05574173,7129,7111,120,28.8,46.48661031,0.7009052122,0.6861089569,51.47407488
537.751389,150.9063813,7.847329902,24.83950421,56.22882382,7129,7111,120,28.8,-75.40360342,0.9456167917,0.9377401581,35.57333752
541.5130729,139.4630782,4.075009974,25.84301801,42.1430579,7129,7111,120,28.8,-56.43693236,0.8911010475,0.8760620159,32.68237144
531.5447273,156.5266166,7.562424401,26.63977606,56.88947366,7129,7111,120,28.8,-93.43716186,0.9548883533,0.9487051115,37.15230933
539.032658,119.7544635,7.939675466,24.60170584,56.3604077,7129,7111,120,28.8,-41.68914751,0.9171589852,0.9066833423,35.65658446
547.0407759,151.6702741,7.761454993,43.00941718,74.05523715,7129,7111,120,28.8,-57.58872229,0.8262878061,0.8146306805,54.40792934
565.8939378,115.8303925,3.80558651,33.40126173,48.62360777,7129,7111,120,28.8,15.95748308,0.4499572124,0.4430953117,38.70042251
581.3442703,101.5781215,5.96660644,29.61079117,53.47721693,7129,7111,120,28.8,61.11041914,0.9691238062,0.9645891745,37.10664032
604.5123808,100.7979014,3.624505869,31.17642715,45.67445062,7129,7111,120,28.8,108.2268601,0.9887981084,0.9868074317,34.48887088
554.4935668,101.5235876,5.008430839,36.93819744,56.97192079,7129,7111,120,28.8,7.463545939,0.2872822583,0.2872822583,56.97192079
542.47793,119.4195589,6.928928162,29.80990178,57.52561443,7129,7111,120,28.8,-34.4636989,0.8439431583,0.8352924827,39.91573246
564.1975793,119.9234831,4.369056193,42.34417839,59.82040316,7129,7111,120,28.8,8.47167553,0.1655804112,0.1575037995,45.17050851
549.0827367,105.0394513,5.104363637,29.22547428,49.64292882,7129,7111,120,28.8,-6.873977922,0.3437044516,0.3437044516,49.64292882
551.8690478,150.392675,5.103251934,35.12655305,55.53956079,7129,7111,120,28.8,-46.65457937,0.7765808377,0.7524812656,40.80457527
539.682921,149.8103756,7.14397683,48.55447841,77.13038573,7129,7111,120,28.8,-70.44453356,0.8619930959,0.8530730345,58.24131168
535.2362477,115.962126,6.94368191,30.75991452,58.53464216,7129,7111,120,28.8,-45.4896305,0.9130058567,0.9049839893,43.00504322
527.025533,113.6452305,6.068938578,48.23432065,72.51007496,7129,7111,120,28.8,-59.59416449,0.9186408244,0.9122314836,56.23230303
572.9912158,152.8760021,5.193040575,49.33875462,70.11091692,7129,7111,120,28.8,-6.893570543,0.07075224121,0.06422790157,32.9092059
606.0570184,139.6194864,6.441121942,41.51001904,67.27450681,7129,7111,120,28.8,72.49455046,0.9082840095,0.9001009818,49.42616827
531.3105786,142.0637112,4.263134163,23.84221253,40.89474918,7129,7111,120,28.8,-79.44255402,0.9504478052,0.9386056844,28.37594841
609.5065203,155.9505898,6.02531178,26.36778246,50.46902958,7129,7111,120,28.8,63.06245081,0.8987349033,0.8825534821,35.01932664
560.1526159,107.4615848,4.954051565,27.47839785,47.29460411,7129,7111,120,28.8,12.84364707,0.4815727164,0.4812565129,43.4338201
578.2649813,105.3532734,6.961493297,23.76639986,51.61237304,7129,7111,120,28.8,51.17668914,0.9635678407,0.9582502857,32.6527258
547.0384427,118.5708393,5.71091388,38.92667916,61.77033468,7129,7111,120,28.8,-24.49395387,0.65377872,0.6506522514,52.94600116
597.9349097,124.6290176,4.953950334,30.49416256,50.30996389,7129,7111,120,28.8,71.24080184,0.9497332261,0.9423863845,35.9356885
595.773848,146.0034662,7.38699283,26.73990946,56.28788078,7129,7111,120,28.8,45.54422974,0.8567622113,0.8432275723,39.05689687
561.6343043,111.8174588,7.837838438,39.37004653,70.72140028,7129,7111,120,28.8,11.45114978,0.3419844545,0.3378129377,57.73175533
549.4006505,137.401613,7.952453019,27.11297177,58.92278385,7129,7111,120,28.8,-38.60031197,0.8398440206,0.8276038561,39.68269116
580.7408414,133.5572543,7.04993551,44.77712032,72.97686236,7129,7111,120,28.8,27.92442841,0.5913567824,0.5789132234,59.57294887
544.389964,123.1911561,7.898816164,37.48215666,69.07742131,7129,7111,120,28.8,-34.41122796,0.796650755,0.786398909,52.16050181
532.4458403,116.9248158,7.015937478,45.75854399,73.8222939,7129,7111,120,28.8,-52.03313513,0.8946294719,0.8875936686,55.74336478
554.5592577,134.1877822,6.298587443,49.44298551,74.63733528,7129,7111,120,28.8,-25.06926666,0.4866063817,0.4757008968,62.45164789
590.8392228,134.6992688,7.410284901,43.19190033,72.83303993,7129,7111,120,28.8,46.97917679,0.820399077,0.8092658011,53.50998852
536.048453,129.1931996,6.482731563,45.28188716,71.21281341,7129,7111,120,28.8,-57.09629347,0.8774868914,0.8681794438,53.77294074
533.7050453,157.7715596,3.568369777,39.81465343,54.08813254,7129,7111,120,28.8,-90.36146901,0.9053723064,0.8929619353,44.15357758
526.8742651,149.6263312,6.070159494,29.45863062,53.73926859,7129,7111,120,28.8,-95.87780098,0.9540239834,0.9473878424,36.19175232
552.5240747,159.9525868,3.409789712,43.91519307,57.55435192,7129,7111,120,28.8,-54.90443746,0.7307572439,0.7101187403,48.15772303
557.7198822,118.0428808,3.652717187,31.2645635,45.87543225,7129,7111,120,28.8,-2.603116307,0.07030708661,0.07030708661,45.87543225
543.1618976,107.9981456,5.893606012,30.37099781,53.94542185,7129,7111,120,28.8,-21.67435038,0.703988665,0.6906736431,39.63337116
601.1017115,140.0483929,5.882058156,22.80302772,46.33126034,7129,7111,120,28.8,62.15503012,0.9350810898,0.9242303067,31.20268554
537.8041625,157.5881147,4.730764258,36.7423453,55.66540233,7129,7111,120,28.8,-81.97978963,0.9016168903,0.8892629439,42.0330589
550.7872716,137.1287158,5.20233741,39.55100866,60.3603583,7129,7111,120,28.8,-35.55417251,0.6904679315,0.6730023384,48.04191783
545.5029169,127.4275704,5.053707718,32.77330929,52.98814016,7129,7111,120,28.8,-36.42173665,0.7875544986,0.779778289,43.25562462
574.0623707,117.5172853,5.561299035,33.52279547,55.76799161,7129,7111,120,28.8,30.60745619,0.7799848441,0.7752898279,45.52489111
593.1299971,142.5656758,6.24423119,31.55319817,56.53012293,7129,7111,120,28.8,43.69431847,0.8145080645,0.7975424957,42.68601119
529.3792633,156.1990714,7.027700432,33.79574591,61.90654764,7129,7111,120,28.8,-97.44054473,0.9424043888,0.9363517139,42.95556367
595.8870555,123.8039091,6.276486497,49.26846096,74.37440695,7129,7111,120,28.8,67.97020201,0.9145627937,0.9083459288,57.67811151
530.4642457,152.6813157,5.515772987,43.49304895,65.5561409,7129,7111,120,28.8,-91.75282442,0.915274573,0.9071536232,49.50157578
568.8230731,104.9534635,7.963986893,28.69211011,60.54805769,7129,7111,120,28.8,32.69268272,0.89405729,0.8842171251,39.54158869
546.0479455,107.0075551,4.721687909,30.00168998,48.88844161,7129,7111,120,28.8,-14.91166417,0.5149729162,0.5128875752,41.90437852
595.006811,125.9253029,5.586913804,38.49918769,60.8468429,7129,7111,120,28.8,64.08831905,0.9203365753,0.9123473647,45.94557525
525.8324325,106.5421589,7.754983632,31.71867544,62.73860997,7129,7111,120,28.8,-54.87729387,0.9556183876,0.9508722551,43.53291304
550.2064929,156.8398948,6.197880913,40.52277866,65.31430231,7129,7111,120,28.8,-56.42690891,0.8053137944,0.7897569476,49.31896297
526.3844011,105.3994595,5.208617822,25.56392568,46.39839697,7129,7111,120,28.8,-52.63065742,0.9561445825,0.9513051605,34.08861818
537.6269795,117.7497677,4.564705325,34.76622686,53.02504816,7129,7111,120,28.8,-42.49580866,0.8567025901,0.8461700873,42.20360976
550.1896705,118.6799103,5.429846688,41.11640651,62.83579326,7129,7111,120,28.8,-18.30056934,0.5001064897,0.4982350046,53.85925136
609.7758242,102.5200215,5.154027958,47.84481631,68.46092814,7129,7111,120,28.8,117.0316269,0.9846218975,0.9832049368,53.09214835
525.1737878,100.434569,3.49570859,47.55671593,61.53955029,7129,7111,120,28.8,-50.08699346,0.912605246,0.9086547961,54.00409515
596.1747016,124.7213344,6.473142177,24.45873755,50.35130626,7129,7111,120,28.8,67.62806888,0.9608355612,0.9542813514,32.88248572
549.8316883,121.7020062,5.265339442,43.10680598,64.16816375,7129,7111,120,28.8,-22.03862953,0.5478031987,0.5459199615,57.62039194
603.3722811,105.0169713,5.382988479,32.24200094,53.77395486,7129,7111,120,28.8,101.7275908,0.9859768606,0.9839927113,37.3125401
544.8850259,141.8619294,6.56235677,33.64622888,59.89565596,7129,7111,120,28.8,-52.09187767,0.8608387028,0.845534442,42.7826114
537.0197065,128.6893931,4.015923209,46.11903581,62.18272864,7129,7111,120,28.8,-54.64998001,0.8480180991,0.8363302212,52.03044642
558.0050775,134.5793639,6.874833103,47.53894319,75.0382756,7129,7111,120,28.8,-18.56920898,0.3675302394,0.365199264,65.84991532
609.8199786,109.531493,3.070712107,39.19100592,51.47385435,7129,7111,120,28.8,110.1084641,0.9807278973,0.978005448,42.01947294
542.6919982,115.81869,5.473269999,38.91827321,60.81135321,7129,7111,120,28.8,-30.43469354,0.7526782928,0.7471175214,50.88296901
584.2579527,126.2113316,7.751448191,26.72843564,57.73422841,7129,7111,120,28.8,42.30457381,0.8944335264,0.8845561005,38.88223546
574.8607705,114.255127,5.051297626,30.83082259,51.03601309,7129,7111,120,28.8,35.46641394,0.8477158882,0.8431942531,41.6620515
582.7152141,130.2698602,7.543344675,48.3443404,78.51771911,7129,7111,120,28.8,35.16056799,0.7092196198,0.6959612826,60.89129237
551.1948469,149.1720374,7.419353606,41.87836842,71.55578284,7129,7111,120,28.8,-46.78234365,0.7706445411,0.7567186554,52.57159556
605.79145,110.4696007,4.23671273,41.09997946,58.04683038,7129,7111,120,28.8,101.1132992,0.9764708529,0.9735144609,45.01590927
601.725702,141.6717437,6.332302674,49.52778642,74.85699712,7129,7111,120,28.8,61.77966038,0.8458094417,0.8352806738,58.05236511
523.3713468,103.5838022,3.978095953,38.10738695,54.01977077,7129,7111,120,28.8,-56.84110855,0.9421277306,0.9379752409,44.09777205
527.4260529,125.4348033,4.01004581,38.21893536,54.2591186,7129,7111,120,28.8,-70.58269751,0.9293047274,0.920198218,43.18582909
588.709387,124.1484585,5.334822915,46.57663616,67.91592782,7129,7111,120,28.8,53.27031545,0.8668331871,0.8567595025,54.05553439
564.4997344,145.5253238,4.789932714,27.98756098,47.14729184,7129,7111,120,28.8,-16.52585499,0.3690740339,0.3139606106,30.79006814
551.9569966,117.5246045,4.806181514,27.01242982,46.23715587,7129,7111,120,28.8,-13.61061133,0.4045495817,0.4028705065,40.57546332
530.0649487,128.3926854,7.342891864,37.40970295,66.78127041,7129,7111,120,28.8,-68.26278796,0.9323829784,0.9263621982,47.70090743
549.5038895,105.7056281,4.27618456,26.37234096,43.4770792,7129,7111,120,28.8,-6.697849184,0.3815627174,0.3815627174,43.4770792
536.4944707,128.838354,3.758366097,41.66405121,56.6975156,7129,7111,120,28.8,-55.84941259,0.8633507668,0.8540756298,47.44077836
580.4850496,125.7747526,5.349866224,36.11144403,57.51090893,7129,7111,120,28.8,35.19534662,0.7669311716,0.757221157,46.94768076
558.3687441,118.6415504,5.404492288,31.58725592,53.20522508,7129,7111,120,28.8,-1.904062212,0.06452171732,0.06452171732,53.20522508
542.1649127,149.5727474,4.102701546,31.63900111,48.04980729,7129,7111,120,28.8,-65.2429221,0.8837027511,0.8708004104,35.30189923
596.2810566,147.110937,5.825102984,32.09921424,55.39962617,7129,7111,120,28.8,45.45117624,0.8038383678,0.7833874571,41.83237078
594.3824338,138.9285775,4.214436521,40.69130503,57.54905111,7129,7111,120,28.8,49.83629002,0.8047579323,0.794912206,46.97881723
555.1223378,142.5924027,3.724066685,39.00838289,53.90464963,7129,7111,120,28.8,-32.34772702,0.5800913435,0.5691182245,46.2039854
553.1212114,112.6101521,5.722683357,48.95560307,71.8463365,7129,7111,120,28.8,-6.367729338,0.1116754327,0.109939881,58.65007061
526.6324106,108.7913867,5.69430752,48.40640515,71.18363523,7129,7111,120,28.8,-55.52656561,0.9178584511,0.9114177556,56.65636273
577.7906,102.7720127,3.136418964,37.42935446,49.97503032,7129,7111,120,28.8,52.80918743,0.9304362428,0.925870134,39.77604454
579.3209364,107.1498397,4.804928834,40.32795761,59.54767294,7129,7111,120,28.8,51.49203317,0.9209655121,0.9149227979,46.179828
526.7423094,115.4949256,3.909417245,29.66963513,45.30730411,7129,7111,120,28.8,-62.01030673,0.9445042285,0.9348578812,33.28699894
537.8590686,109.8860625,5.72090273,34.25397278,57.1375837,7129,7111,120,28.8,-34.16792528,0.8466909869,0.8415457645,46.64292547
564.786699,149.5180292,5.697542891,41.88356184,64.67373341,7129,7111,120,28.8,-19.94463118,0.3420168352,0.3396172782,58.07437286
572.6231389,151.2048399,3.184110766,34.85796684,47.59440991,7129,7111,120,28.8,-5.958562084,0.1717397558,0.04456257598,28.16812015
574.4391448,101.9361895,3.325238258,37.10905388,50.41000692,7129,7111,120,28.8,46.94210005,0.9135172635,0.9067843193,41.15102605
596.9971705,108.9952686,3.471490724,40.4637801,54.349743,7129,7111,120,28.8,84.99907242,0.9672413343,0.9634632289,44.36713714
544.7668834,142.2284318,5.963868613,31.23771666,55.09319112,7129,7111,120,28.8,-52.69466493,0.8683223371,0.8514330852,39.35227937
543.3688697,115.5370669,3.07922976,40.84220768,53.15912672,7129,7111,120,28.8,-28.79932744,0.6836909367,0.6822604514,48.81960617
537.7309486,104.3100725,3.434741949,44.51983306,58.25880085,7129,7111,120,28.8,-28.84817526,0.7471618397,0.7452552177,52.31402526
562.0620639,131.7689794,5.91660714,44.63161587,68.29804443,7129,7111,120,28.8,-7.644851648,0.1558191978,0.1099815856,41.81512924
566.1949111,137.4451327,4.565831237,36.46892716,54.73225211,7129,7111,120,28.8,-5.055310536,0.09637058798,0.04391918154,36.86049632
571.2887826,159.2342599,5.385969477,46.87215909,68.416037,7129,7111,120,28.8,-16.65669459,0.1836920769,0.179638728,60.03856308
525.6946532,103.2721175,6.946894055,48.38012318,76.1676994,7129,7111,120,28.8,-51.88281097,0.9253395631,0.9204317295,59.06882811
522.16484,103.0534005,3.048778403,38.15509788,50.35021149,7129,7111,120,28.8,-58.72372051,0.9414620498,0.9384909567,43.15732413
570.5206783,108.2664365,6.318970769,22.43531341,47.71119649,7129,7111,120,28.8,32.77492009,0.8901432229,0.8732625219,31.1583324
542.7315335,152.2069643,5.769898168,31.90352829,54.98312097,7129,7111,120,28.8,-66.74389725,0.8935677031,0.8806785833,39.27365783
556.3020289,120.5960197,3.01855498,34.00593564,46.08015556,7129,7111,120,28.8,-7.991961968,0.1430344307,0.1428091511,42.31851021
552.1666946,115.9010105,3.814496016,31.37636163,46.63434569,7129,7111,120,28.8,-11.56762135,0.3053078585,0.3046160029,41.87573899
608.5401807,141.9660166,3.985644692,46.26722099,62.20979976,7129,7111,120,28.8,75.11434472,0.8884818032,0.8776267936,50.78351001
529.0903922,136.8853943,3.073470859,46.75266576,59.0465492,7129,7111,120,28.8,-78.70461,0.9023616249,0.8922080511,49.40629627
529.5618678,114.0436623,6.277813862,41.7849059,66.89616135,7129,7111,120,28.8,-54.91992675,0.9179603505,0.9114475772,50.51342796
565.0286307,153.7040035,4.559816958,30.91109313,49.15036097,7129,7111,120,28.8,-23.64674217,0.50394033,0.4590925526,26.07978337
577.1712282,112.285555,7.71136169,24.37112745,55.21657421,7129,7111,120,28.8,42.05690142,0.9334101596,0.9243048293,34.9329347
551.6638563,123.1981989,3.40100684,38.65498447,52.25901183,7129,7111,120,28.8,-19.8704863,0.5044407104,0.5039875955,49.0594805
544.9011125,158.9804531,6.635559939,47.21621354,73.75845329,7129,7111,120,28.8,-69.17822805,0.8347799378,0.8233312439,55.69515861
602.7086507,116.2389978,6.741860911,40.07804945,67.0454931,7129,7111,120,28.8,89.17830353,0.9680037442,0.9651159527,47.88963793
544.966095,111.6482426,3.507768168,47.08023491,61.11130758,7129,7111,120,28.8,-21.71605264,0.5670052664,0.5665456664,57.36979895
527.7930751,148.537194,5.655074077,27.96678004,50.58707635,7129,7111,120,28.8,-92.95104388,0.9542118211,0.9470464138,35.10123665
571.5825819,145.9374143,7.726921166,42.35987626,73.26756093,7129,7111,120,28.8,-2.772250439,0.1178262184,0.01379245536,40.37192133
553.5502772,106.0412225,5.881369637,47.53147458,71.05695313,7129,7111,120,28.8,1.059331961,0.02067231557,0.02067231557,71.05695313
536.9103458,122.2568513,4.416559044,28.94861205,46.61484823,7129,7111,120,28.8,-48.43615962,0.8933240791,0.8837284232,37.1016139
550.9511617,109.2694787,4.245012007,36.29303058,53.27307861,7129,7111,120,28.8,-7.367155368,0.1969755238,0.1969755238,53.27307861
605.8892208,153.6553667,3.797095184,37.94408294,53.13246367,7129,7111,120,28.8,58.12307492,0.8095779563,0.7956182311,44.45777573
533.7263689,140.4310632,5.658997151,27.60149903,50.23748763,7129,7111,120,28.8,-72.97832533,0.9396241355,0.9296742076,33.83341004
549.1546767,121.8443174,7.074751132,28.55511833,56.85412286,7129,7111,120,28.8,-23.534964,0.6907895501,0.6671649926,38.28951131
572.7032429,132.4059551,4.649359289,48.02411048,66.62154764,7129,7111,120,28.8,13.00053064,0.2430820437,0.2430820437,66.62154764
549.3571758,119.9281866,6.463039057,35.65692954,61.50908577,7129,7111,120,28.8,-21.21383491,0.6066460846,0.5958237662,42.6797738
533.7589798,143.487846,3.74042503,42.60944375,57.57114387,7129,7111,120,28.8,-75.96988642,0.8945267628,0.8844627104,46.99685214
597.1419836,123.3125503,4.167480548,28.72669645,45.39661864,7129,7111,120,28.8,70.97141699,0.9514289009,0.9429518261,32.42615617
552.5532349,151.7950957,3.549026309,28.16840234,42.36450758,7129,7111,120,28.8,-46.68862592,0.7709190655,0.7550871946,34.58327149
543.8905286,146.1736543,5.778916752,45.36917373,68.48484074,7129,7111,120,28.8,-58.39259725,0.8267610052,0.8124784257,53.11069282
587.7421395,136.6253674,7.88469578,30.37790999,61.91669311,7129,7111,120,28.8,38.85891161,0.8233395628,0.8116682549,45.48981535
569.5955794,152.5727029,4.007076749,25.69578892,41.72409592,7129,7111,120,28.8,-13.38154406,0.2531518729,0.1978020842,28.09990134
532.3892755,119.6737127,6.858628861,37.60823564,65.04275109,7129,7111,120,28.8,-54.8951616,0.9164251787,0.9087390193,46.45910792
599.0468101,102.6540276,5.980014498,34.40044546,58.32050345,7129,7111,120,28.8,95.43959261,0.9845798653,0.9827181956,41.65750247
562.2865172,108.4562827,7.586633187,38.36379912,68.71033187,7129,7111,120,28.8,16.11675161,0.5407810146,0.5328489876,53.28556349
574.7285729,127.5529506,5.752802127,39.46172479,62.4729333,7129,7111,120,28.8,21.90419512,0.5424571651,0.5402186642,54.82318636
