@RELATION appendixE_02_near_O

@ATTRIBUTE omega_m_MHz NUMERIC
@ATTRIBUTE omega_a_MHz NUMERIC
@ATTRIBUTE sigma_ns NUMERIC
@ATTRIBUTE T_active_ns NUMERIC
@ATTRIBUTE T_total_ns NUMERIC
@ATTRIBUTE omega_r_MHz NUMERIC
@ATTRIBUTE omega_p_MHz NUMERIC
@ATTRIBUTE g_qr_MHz NUMERIC
@ATTRIBUTE J_MHz NUMERIC
@ATTRIBUTE detuning_MHz NUMERIC
@ATTRIBUTE leakage_final NUMERIC
@ATTRIBUTE min_leakage NUMERIC
@ATTRIBUTE min_leakage_time_ns NUMERIC

@DATA
564,128,5,34.5,54.5,7129,7111,120,28.8,0,0.000599796535,0.0002034005173,46.71428571
563.5206048,128.2232662,4.95255607,30.50450741,50.3147317,7129,7111,120,28.8,-1.182056706,0.01212875414,0.01212875414,50.3147317
562.9485805,125.1714813,4.148573183,36.19321704,52.78750978,7129,7111,120,28.8,0.7256795984,0.001975991377,0.001414572577,45.24643695
562.5741179,123.6347588,4.661801187,36.05798217,54.70518692,7129,7111,120,28.8,1.513477005,0.005964565911,0.005964565911,54.70518692
562.6268541,128.327378,5.4996595,37.38341431,59.38205231,7129,7111,120,28.8,-3.073669881,0.03062536605,0.02065440334,44.83950889
563.6438276,127.8354877,4.936053214,32.54969535,52.29390821,7129,7111,120,28.8,-0.5478325443,0.002282606579,0.002282606579,52.29390821
564.8303415,130.7464669,4.979523835,32.91340719,52.83150253,7129,7111,120,28.8,-1.085783863,0.003394409602,0.002729460129,45.28414503
561.9396835,126.4348173,5.502827725,34.19182485,56.20313576,7129,7111,120,28.8,-2.555450303,0.01625960252,0.01625941538,55.05613299
565.2207266,130.414804,4.722238589,33.84662948,52.73558384,7129,7111,120,28.8,0.02664919383,0.002496728022,0.0002027530204,43.04945619
563.3076703,126.5994224,4.849893264,33.90015657,53.29972962,7129,7111,120,28.8,0.01591819837,0.0005816461241,0.0005816461241,53.29972962
561.4699357,124.5535633,5.66162302,33.15753357,55.80402565,7129,7111,120,28.8,-1.613691855,0.01423613028,0.01423613028,55.80402565
563.0197091,125.3647655,5.56290888,31.5919514,53.84358691,7129,7111,120,28.8,0.6746526651,0.01549452203,0.01549452203,53.84358691
563.1072951,127.4786954,4.29559221,35.96985342,53.15222226,7129,7111,120,28.8,-1.264105108,0.007124509255,0.003700823354,43.38956919
564.0421369,127.9413902,4.699075411,35.40956833,54.20586997,7129,7111,120,28.8,0.1428836886,0.002410697313,0.0002460095588,44.24968977
563.1829751,126.6517566,4.556695683,32.06779448,50.29457721,7129,7111,120,28.8,-0.285806417,0.005024207442,0.005024207442,50.29457721
565.1623101,131.3388296,5.116672143,34.43241913,54.8991077,7129,7111,120,28.8,-1.014209409,0.008056655651,0.002335065665,42.57481822
562.9406075,126.897137,5.252033037,33.89626479,54.90439694,7129,7111,120,28.8,-1.015921941,0.003013982119,0.003013982119,54.90439694
563.832917,127.6213909,5.470603328,35.86102195,57.74343526,7129,7111,120,28.8,0.04444311439,0.002037154419,0.0002072561497,47.13749817
563.9146789,128.9565007,4.447212512,36.39905986,54.18790991,7129,7111,120,28.8,-1.127142787,0.01139570141,0.002871536516,42.02327707
565.0673505,130.4161178,5.216753537,36.06288611,56.92990025,7129,7111,120,28.8,-0.2814167982,0.01015230222,0.0003684047756,42.98788387
565.960364,130.0779611,4.81775294,37.52994597,56.80095772,7129,7111,120,28.8,1.842766946,0.02501620702,0.007184863616,41.73131588
563.3034818,124.8835174,5.197572832,36.24723823,57.03752955,7129,7111,120,28.8,1.723446154,0.007544656851,0.007348695167,50.05334226
567.8332059,132.6975208,4.541929237,31.12265684,49.29037379,7129,7111,120,28.8,2.968890947,0.01853267585,0.01787932102,42.24889182
564.0060989,130.0422226,4.995037845,36.17945495,56.15960633,7129,7111,120,28.8,-2.030024832,0.01915537473,0.008772462038,42.40623335
559.8352729,123.8905066,5.103719608,34.58877178,55.00365021,7129,7111,120,28.8,-4.219960909,0.04485923573,0.04484400075,52.75860326
563.7312809,127.3854923,4.655793757,31.47301119,50.09618621,7129,7111,120,28.8,0.07706952754,0.005766973362,0.005766973362,50.09618621
562.8199727,127.5833629,4.342607471,35.51136214,52.88179203,7129,7111,120,28.8,-1.943417382,0.01104883193,0.00836605697,43.16880982
564.3297803,127.8465034,4.604282023,33.18388242,51.60101051,7129,7111,120,28.8,0.8130570733,0.001899540331,0.001899540331,51.60101051
561.8645543,125.5023924,5.078163167,32.93405077,53.24670344,7129,7111,120,28.8,-1.773283734,0.01233390533,0.01233390533,53.24670344
564.7848388,128.8901657,5.810064395,31.71442191,54.95467949,7129,7111,120,28.8,0.6795118508,0.004509720655,0.004509720655,54.95467949
565.02039,130.2197559,4.994388108,31.60027236,51.57782479,7129,7111,120,28.8,-0.1789759238,0.0008998441347,0.0008998441347,51.57782479
564.167955,126.8495155,4.967008651,34.66210874,54.53014335,7129,7111,120,28.8,1.486394527,0.005413330453,0.005320679773,48.965843
564.7911739,127.2732083,4.991410973,30.09916866,50.06481255,7129,7111,120,28.8,2.309139494,0.02708146581,0.02708146581,50.06481255
561.1661127,126.2698186,4,33.4397693,49.4397693,7129,7111,120,28.8,-3.937593214,0.03494894366,0.03488981568,46.41284465
565.7140697,131.3338996,4.530981717,32.61860026,50.74252713,7129,7111,120,28.8,0.09423981226,0.001204873088,0.000227916442,42.45803291
565.5708932,130.8265331,5.019199697,34.39307642,54.46987521,7129,7111,120,28.8,0.3152532468,0.00477787704,0.0004403287915,43.35357415
564.853406,128.0960007,5.221026919,34.9314094,55.81551708,7129,7111,120,28.8,1.610811294,0.007215686984,0.006016773065,46.70277959
563.2075233,125.3928291,4.726301169,36.68769135,55.59289603,7129,7111,120,28.8,1.02221753,0.003806865487,0.002614283076,46.51650484
562.2735655,124.8223729,4.997056685,31.8507089,51.83893564,7129,7111,120,28.8,-0.2752419526,0.01319875058,0.01319875058,51.83893564
567.6128713,132.3049291,4.814566495,36.04344233,55.30170831,7129,7111,120,28.8,2.920813535,0.03651354888,0.01692979717,40.62982652
561.8597856,128.9466902,5.100159207,34.37731184,54.77794867,7129,7111,120,28.8,-5.227118927,0.06169811973,0.05702581674,43.59877547
563.0271468,128.2080434,4.892261182,34.14348247,53.7125272,7129,7111,120,28.8,-2.15374984,0.01106374274,0.01048077451,46.03930903
565.8195448,130.9702355,4.997777988,37.55794,57.54905195,7129,7111,120,28.8,0.6688541208,0.02200416337,0.001352110558,41.10646568
562.9165098,126.6118802,4.273297995,37.63821169,54.73140367,7129,7111,120,28.8,-0.7788606098,0.008208238576,0.00163587843,43.56172946
566.1222635,130.4108309,5.267559379,34.72029718,55.79053469,7129,7111,120,28.8,1.833696089,0.01200322689,0.007384171431,43.26612894
564.0173546,128.5387223,4.91855983,34.60860722,54.28284654,7129,7111,120,28.8,-0.5040131805,0.001903993882,0.0007615238194,45.42034098
566.4454748,131.7795738,4.97661595,33.3412159,53.2476797,7129,7111,120,28.8,1.111375804,0.005844730936,0.002765531071,42.38080629
564.8089569,126.4125038,5.202674922,34.63510112,55.4458008,7129,7111,120,28.8,3.205410022,0.02438778316,0.02413121497,48.65651907
562.4582193,127.1345454,4.973255377,36.24731607,56.14033758,7129,7111,120,28.8,-2.218106823,0.01432920217,0.01116138609,44.68312583
563.2820859,127.0186569,4.911586259,34.71918874,54.36553377,7129,7111,120,28.8,-0.454485166,0.0007780194528,0.0006771385186,48.81803033
561.773338,124.0174728,4.658241793,36.26917007,54.90213724,7129,7111,120,28.8,-0.4707967039,0.0007431871934,0.0007431871934,54.90213724
563.6137984,126.0735033,5.609774981,33.87280748,56.3119074,7129,7111,120,28.8,1.154093495,0.004989734883,0.004989734883,56.3119074
563.4394619,126.4960594,4.999188389,32.51276731,52.50952086,7129,7111,120,28.8,0.3828645183,0.00454531948,0.00454531948,52.50952086
566.5916653,129.1522985,4.896755202,34.09424761,53.68126842,7129,7111,120,28.8,4.031032107,0.03730852425,0.03440176066,43.8214436
563.0129234,125.3876699,4.50120951,32.28613795,50.29097599,7129,7111,120,28.8,0.6381769034,0.008103119194,0.008103119194,50.29097599
564.694131,131.1991682,5.432543028,37.54871601,59.27888812,7129,7111,120,28.8,-1.810906119,0.0278620185,0.006961156477,42.34206294
564.8775495,128.6483161,5.780900377,34.1065432,57.23014471,7129,7111,120,28.8,1.106782806,0.003215227465,0.003048538849,50.22237188
561.9055117,126.5174855,5.016682832,37.45828842,57.52501975,7129,7111,120,28.8,-2.70646213,0.02220173061,0.01653649253,44.61123981
564.257403,130.3989885,4.657849846,33.49165754,52.12305693,7129,7111,120,28.8,-1.884182483,0.009531252706,0.007619838086,42.54943423
564.1600237,128.7306702,5.085781578,35.09347876,55.43660507,7129,7111,120,28.8,-0.4106228542,0.002843221846,0.0005834433648,45.25437148
563.5863591,127.253066,5.082636951,34.33206059,54.6626084,7129,7111,120,28.8,-0.08034788321,0.0002169566338,0.0002157373901,52.43148152
566.5002769,129.2588022,5.236788914,34.61162109,55.55877675,7129,7111,120,28.8,3.741751547,0.03374141992,0.0299727644,44.22025088
562.2803088,123.7847034,4.221328635,31.68193183,48.56724637,7129,7111,120,28.8,0.775914172,0.01773447619,0.01773447619,48.56724637
565.7745341,130.1365981,4.940024401,31.07997779,50.84007539,7129,7111,120,28.8,1.41247012,0.00629009601,0.00629009601,50.84007539
562.857076,127.0716287,5.254736298,39.01546106,60.03440626,7129,7111,120,28.8,-1.357476636,0.01631081877,0.00439258178,45.33210269
563.491852,128.5423262,4.531779388,34.38781144,52.51492899,7129,7111,120,28.8,-1.558622256,0.00674635453,0.005442342612,43.94106303
562.6274893,127.558017,5.046542094,32.19817296,52.38434133,7129,7111,120,28.8,-2.303038319,0.0150530273,0.0150530273,52.38434133
566.4527847,130.7802682,5.433900506,33.55189906,55.28750108,7129,7111,120,28.8,2.125301212,0.01178468042,0.009863268544,45.13265395
564.5110812,129.2863014,4.844475175,33.82170869,53.19960939,7129,7111,120,28.8,-0.2641390104,0.00103560337,0.0003664757418,45.59966519
560.9314922,124.7507118,5.317725916,34.11752919,55.38843286,7129,7111,120,28.8,-2.887727392,0.02281100026,0.02281100026,55.38843286
565.2722415,128.5410621,4.306747002,32.93173985,50.15872786,7129,7111,120,28.8,2.003420777,0.009051025033,0.009031232269,47.08778534
564.6112633,128.4383371,4.84917022,36.55835847,55.95503934,7129,7111,120,28.8,0.7841895733,0.008294348035,0.001525767715,43.39370398
563.0496115,128.5259873,4.62769449,36.11094212,54.62172008,7129,7111,120,28.8,-2.426764278,0.01925504356,0.01270918198,42.35970129
562.6807281,129.1595786,5.539084922,35.69605406,57.85239375,7129,7111,120,28.8,-3.798122478,0.03758829066,0.03100267144,44.86512168
565.2954779,131.3583575,4.881717511,32.24708583,51.77395588,7129,7111,120,28.8,-0.7674017622,0.001748690206,0.001453676178,45.43428781
566.9957077,134.3423239,5.635013277,33.2054151,55.7454682,7129,7111,120,28.8,-0.3509084508,0.007506028223,0.0005402323631,42.09351681
562.533449,128.409603,4.84685314,36.46750982,55.85492238,7129,7111,120,28.8,-3.342704973,0.03194823771,0.02385394157,43.31606225
563.5075478,124.8706405,5.134895126,32.41209815,52.95167866,7129,7111,120,28.8,2.14445509,0.02018277655,0.02018277655,52.95167866
562.9139377,126.7460068,4.980192265,33.42771207,53.34848113,7129,7111,120,28.8,-0.9181313534,0.003169741824,0.003169741824,53.34848113
562.6613024,125.9317802,4.589244105,31.92094685,50.27792327,7129,7111,120,28.8,-0.609175405,0.008402514406,0.008402514406,50.27792327
564.8226536,127.8795588,4.388251318,34.5070163,52.06002157,7129,7111,120,28.8,1.765748451,0.007924875082,0.007015250413,44.62287564
562.2104093,126.3751095,5.341375061,33.46366062,54.82916087,7129,7111,120,28.8,-1.954290874,0.01095721727,0.01095721727,54.82916087
565.0930377,131.7457542,5.154600797,34.04543399,54.66383718,7129,7111,120,28.8,-1.559678728,0.01059479976,0.005217022746,42.39236352
563.6451478,126.1149455,4.938006971,35.70642116,55.45844904,7129,7111,120,28.8,1.175350085,0.003867901193,0.003402200909,47.53581347
562.8550694,127.8817712,4.959172303,34.60391034,54.44059955,7129,7111,120,28.8,-2.171632511,0.01157003788,0.01070983074,45.5523384
564.2918097,130.3961574,4.984268059,31.05624254,50.99331477,7129,7111,120,28.8,-1.812538015,0.00881003507,0.00881003507,50.99331477
563.7328834,129.6287327,4.277456192,34.38156633,51.4913911,7129,7111,120,28.8,-2.162965949,0.0134546595,0.00991497038,42.03378865
563.8576593,130.7642124,4.564785766,33.01345022,51.27259328,7129,7111,120,28.8,-3.048893896,0.02135840269,0.01922262763,41.85517819
562.9675571,125.1762584,4.677053022,33.05697053,51.76518262,7129,7111,120,28.8,0.7588557767,0.006006167015,0.006006167015,51.76518262
563.9736171,129.4582635,5.173112039,32.55722966,53.24967781,7129,7111,120,28.8,-1.511029262,0.005486341104,0.005486341104,53.24967781
560.6493776,124.9696537,5.744481115,33.85948194,56.83740639,7129,7111,120,28.8,-3.670898578,0.03617245895,0.03617245895,56.83740639
564.2738672,128.6098334,5.063984703,34.59937296,54.85531177,7129,7111,120,28.8,-0.06209901796,0.001268974874,0.0002100478409,45.8993425
565.3463447,132.7705426,4.377015158,32.47608066,49.98414129,7129,7111,120,28.8,-2.077853182,0.01219703918,0.008721078042,40.80338065
563.0785758,124.6632275,5.328151284,32.57736891,53.88997404,7129,7111,120,28.8,1.493924105,0.01514502763,0.01514502763,53.88997404
561.9071586,124.5239106,5.556449551,30,52.2257982,7129,7111,120,28.8,-0.7095933063,0.03533284977,0.03533284977,52.2257982
563.5825282,129.3165669,5.416146859,32.34415212,54.00873955,7129,7111,120,28.8,-2.151510455,0.01127197317,0.01127197317,54.00873955
562.1369511,127.2864604,4.60909686,37.27167833,55.70806577,7129,7111,120,28.8,-3.012558201,0.02775387213,0.0197199929,43.20217345
564.6240552,130.0514467,4.651931052,30.71238573,49.32010993,7129,7111,120,28.8,-0.8033363043,0.004214679726,0.004214679726,49.32010993
563.4770259,127.0158582,4.966378257,34.31241614,54.17792917,7129,7111,120,28.8,-0.06180650517,0.0002136952784,0.0002136952784,54.17792917
562.5314641,125.1954759,4.984530648,37.08112408,57.01924667,7129,7111,120,28.8,-0.1325477707,0.001532819376,0.0002559036359,47.70998191
566.1964278,132.6668336,4.69347762,34.37003574,53.14394622,7129,7111,120,28.8,-0.2739780538,0.01047401616,0.0004223726129,40.12910225
562.4980396,126.4809468,4.976539939,32.41339114,52.31955089,7129,7111,120,28.8,-1.484867631,0.009587649357,0.009587649357,52.31955089
564.6537179,129.5152669,5.100003323,34.13411993,54.53413322,7129,7111,120,28.8,-0.2078310984,0.001545344523,0.0003130259049,45.63060126
562.1429724,126.1818639,4.905089598,33.40247933,53.02283772,7129,7111,120,28.8,-1.895919119,0.01023423009,0.01023423009,53.02283772
564.287945,128.5847533,4.455077301,34.6342426,52.4545518,7129,7111,120,28.8,-0.008863406395,0.0018392085,0.0002254320195,43.89054334
561.7049469,124.642849,4.882258556,30.34945344,49.87848767,7129,7111,120,28.8,-1.232955251,0.0295784302,0.0295784302,49.87848767
564.2653677,128.2287686,4.936790323,33.65136546,53.39852675,7129,7111,120,28.8,0.3019666994,0.0004120505431,0.0004091637484,51.21899504
562.556456,127.0659908,4.892119852,33.39477639,52.9632558,7129,7111,120,28.8,-1.953078937,0.009614131727,0.009614131727,52.9632558
562.9104707,128.2292135,5.094235964,34.78643779,55.16338164,7129,7111,120,28.8,-2.408272179,0.01457634038,0.01302088381,45.03133195
563.3838416,127.6460929,5.220935957,31.17079659,52.05454041,7129,7111,120,28.8,-0.8784096462,0.009507361283,0.009507361283,52.05454041
564.8186041,129.1511333,5.113350517,35.26662518,55.72002725,7129,7111,120,28.8,0.4860749324,0.004211448175,0.0007120857942,44.34859312
562.9234844,126.365889,5.254823332,35.36127849,56.38057182,7129,7111,120,28.8,-0.5189201166,0.0009625560881,0.0008422224981,50.62745224
562.7440707,128.5167819,5.215154846,36.83894198,57.69956137,7129,7111,120,28.8,-3.02864049,0.02871341617,0.01988761494,43.56905654
565.4959674,130.5241787,4.376928559,36.38508963,53.89280386,7129,7111,120,28.8,0.4677560975,0.01458147632,0.0006489815565,40.69456618
561.2834121,127.6318634,5.150882961,31.51565643,52.11918828,7129,7111,120,28.8,-5.065039296,0.06107971908,0.06105381687,49.99187447
561.7444904,124.7588985,5.509036471,33.75830929,55.79445518,7129,7111,120,28.8,-1.269917785,0.008347477468,0.008347477468,55.79445518
566.0867074,128.677479,5.637611905,34.29329317,56.84374079,7129,7111,120,28.8,3.495935928,0.02892731886,0.0274081968,46.4030537
562.4372281,127.3961974,4.72221677,35.3507167,54.23958378,7129,7111,120,28.8,-2.521741268,0.01615837718,0.01419674412,44.27721125
564.6049017,128.9893269,5.397920663,32.95526397,54.54694663,7129,7111,120,28.8,0.2204764623,0.000443400998,0.000443400998,54.54694663
564.6611473,127.8598087,5.233658362,36.64189155,57.576525,7129,7111,120,28.8,1.462485977,0.01005579995,0.004967580377,44.65118265
564.186873,128.992551,5.144876904,32.49480961,53.07431722,7129,7111,120,28.8,-0.6188051112,0.001527153584,0.001527153584,53.07431722
562.5313476,123.9013517,4.977943867,35.11681925,55.02859472,7129,7111,120,28.8,1.161343562,0.004829095989,0.004829095989,55.02859472
561.5127805,123.7557891,4.760057155,32.77157577,51.81180439,7129,7111,120,28.8,-0.7302280495,0.01183915392,0.01183915392,51.81180439
560.8463578,122.3624625,5.358921715,35.26199544,56.6976823,7129,7111,120,28.8,-0.6697469643,0.005657952005,0.005657952005,56.6976823
563.2339408,126.4976335,5.302720032,30,51.21088013,7129,7111,120,28.8,-0.0297519433,0.02161342095,0.02161342095,51.21088013
564.3875295,127.6886586,5.27285145,37.90146041,58.99286621,7129,7111,120,28.8,1.086400294,0.01197230942,0.002821029607,44.54563367
565.7313699,130.8376142,5.120790402,36.0738907,56.55705231,7129,7111,120,28.8,0.6251256695,0.01260095021,0.001045268184,42.70634562
563.2856532,126.6516825,5.362495601,38.41489043,59.86487283,7129,7111,120,28.8,-0.08037610989,0.007832951596,0.0003413452247,46.42581975
563.7525152,127.6018317,5.079392078,37.18640739,57.5039757,7129,7111,120,28.8,-0.09680137866,0.006515240905,0.0002213417424,44.59491993
565.4314674,127.9242167,4.613337113,34.12792741,52.58127586,7129,7111,120,28.8,2.938718073,0.01987643014,0.01906435098,45.06966502
564.5387993,127.5045871,5.418104151,31.48111128,53.15352789,7129,7111,120,28.8,1.573011448,0.01262032263,0.01262032263,53.15352789
563.1929554,125.7122059,4.736522542,31.45514445,50.40123462,7129,7111,120,28.8,0.6737049576,0.01243347388,0.01243347388,50.40123462
565.79207,130.5961999,5.197270999,33.54910857,54.33819256,7129,7111,120,28.8,0.9879401683,0.0037425501,0.002314170566,44.35770821
565.0462131,130.5723461,5.438574111,32.6766697,54.43096614,7129,7111,120,28.8,-0.4799199929,0.0007781551335,0.0007146492167,48.87678592
563.1369939,125.8646614,4.719067142,35.85090213,54.7271707,7129,7111,120,28.8,0.4093264212,0.001030323134,0.0005922488384,46.90900345
563.4021385,128.6502194,5.02914624,33.79744462,53.91402959,7129,7111,120,28.8,-1.845942436,0.008141428141,0.007798192073,47.31231168
564.5122381,130.2895821,4.824330762,36.92247381,56.21979686,7129,7111,120,28.8,-1.265105966,0.01851734234,0.00363209698,41.30434055
568.7972504,133.5964835,5.025289205,34.93770941,55.03886623,7129,7111,120,28.8,3.998017328,0.04969150385,0.03069668599,40.43671805
565.7923885,131.8336467,4.609460345,34.73375119,53.17159258,7129,7111,120,28.8,-0.2488696125,0.009751172212,0.0004460097003,41.23511261
563.7352464,129.128792,4.341507543,31.62654097,48.99257114,7129,7111,120,28.8,-1.658299236,0.007289798367,0.007289798367,48.99257114
564.0734101,129.6635732,4.943461163,34.92511737,54.69896202,7129,7111,120,28.8,-1.516753033,0.009166859449,0.005080023208,43.53590855
564.4390233,129.5478522,5.19948628,32.71987942,53.51782454,7129,7111,120,28.8,-0.6698055974,0.001250496551,0.001250496551,53.51782454
562.5234419,127.0957149,5.452706887,34.44583354,56.25666109,7129,7111,120,28.8,-2.048831176,0.01019299821,0.01013409149,51.66428059
562.7234938,126.1517313,4.911308608,35.90103958,55.54627401,7129,7111,120,28.8,-0.7047435961,0.002010390139,0.001358032554,47.61109201
560.9682489,124.0109096,4.848757099,39.56461167,58.95964006,7129,7111,120,28.8,-2.074411683,0.01596825073,0.01031555704,45.7238025
565.0831469,130.3891972,5.284799833,38.61487234,59.75407167,7129,7111,120,28.8,-0.2229033583,0.02386249631,0.0003047889709,42.68147977
563.3414067,127.4156402,5.484777417,35.488351,57.42746067,7129,7111,120,28.8,-0.7328266882,0.002363825399,0.001436865172,48.05154872
564.330944,129.6783329,5.769681253,37.9191816,60.99790661,7129,7111,120,28.8,-1.016444799,0.01749895744,0.002465811432,44.81478853
565.3917246,129.4148695,4.189095651,35.77541959,52.53180219,7129,7111,120,28.8,1.368579676,0.01190958151,0.004102610075,40.73894864
564.19127,127.5147285,5.272983765,33.81741646,54.90935152,7129,7111,120,28.8,0.8678114117,0.002088583552,0.002088583552,54.90935152
562.2547723,123.7737955,4.703446539,33.83961181,52.65339797,7129,7111,120,28.8,0.7357491301,0.006451907113,0.006451907113,52.65339797
562.9027884,126.4887254,4.076191617,36.93389425,53.23866072,7129,7111,120,28.8,-0.6831485105,0.005496215878,0.001320223808,42.37362792
565.4280819,128.6333653,5.791936732,34.54518625,57.71293317,7129,7111,120,28.8,2.222798526,0.01240070806,0.0114395877,48.29041347
560.8530678,123.4939094,4.517238208,33.49625071,51.56520354,7129,7111,120,28.8,-1.787773701,0.01447671037,0.01447671037,51.56520354
562.0973727,128.1991199,5.136990197,31.47928669,52.02724748,7129,7111,120,28.8,-4.004374534,0.03946905177,0.03946905177,52.02724748
564.2622154,128.7434132,4.874547504,34.35391389,53.85210391,7129,7111,120,28.8,-0.2189822904,0.001253438248,0.0003082235457,45.05992368
562.712806,126.650555,4.326897444,34.44074537,51.74833514,7129,7111,120,28.8,-1.224942887,0.003650817884,0.003614689774,47.52398126
568.2874122,132.6138343,5.528727039,35.9116032,58.02651136,7129,7111,120,28.8,3.960990126,0.0503939031,0.0312442663,41.44750811
564.5971506,126.3087997,4.977548978,34.36224898,54.27244489,7129,7111,120,28.8,2.885501576,0.01978394148,0.01972022955,49.84204123
563.727928,127.2719322,4.825914039,34.33243566,53.63609182,7129,7111,120,28.8,0.183923798,0.0003013348941,0.0002787272064,49.25763534
562.2705874,125.2885022,5.912222588,34.36081194,58.0097023,7129,7111,120,28.8,-0.7473274095,0.003563839071,0.003563839071,58.0097023
564.2340486,127.4033486,5.283248729,32.27246228,53.4054572,7129,7111,120,28.8,1.064748558,0.006183550884,0.006183550884,53.4054572
564.6593274,127.482103,5.107935052,34.74390809,55.17564829,7129,7111,120,28.8,1.836551682,0.008372031941,0.007859888029,47.29341282
565.2647493,131.8850442,5.033098358,33.45988267,53.5922761,7129,7111,120,28.8,-1.355545519,0.007671077138,0.003964523185,42.6550769
563.9110249,131.7257706,4.731943322,33.44168607,52.36945936,7129,7111,120,28.8,-3.903720799,0.03633628639,0.03043373031,40.61305011
565.4357,129.6588491,5.558077704,31.35193432,53.58424513,7129,7111,120,28.8,1.212550952,0.006106695756,0.006106695756,53.58424513
564.6448139,129.8761875,4.733749905,35.57913707,54.51413669,7129,7111,120,28.8,-0.5865597286,0.00800023437,0.0009188252986,42.27626927
560.7729122,125.699651,4.851912604,31.5044583,50.91210871,7129,7111,120,28.8,-4.153826591,0.04870670388,0.04870670388,50.91210871
563.56041,126.3777104,5.124799898,37.6737989,58.17299849,7129,7111,120,28.8,0.7431095275,0.006280221339,0.001540803695,46.30095798
562.2171,127.5008631,4.697561257,32.66123155,51.45147658,7129,7111,120,28.8,-3.066663181,0.0224178104,0.0224178104,51.45147658
562.9130857,124.9554371,4.741907065,30.54525437,49.51288263,7129,7111,120,28.8,0.87073439,0.02374101508,0.02374101508,49.51288263
564.7597269,129.742307,5.142734911,34.71144309,55.28238273,7129,7111,120,28.8,-0.2228531374,0.003252734863,0.0003323198775,44.00026381
564.8275872,129.5791368,5.494480993,35.34996558,57.32788955,7129,7111,120,28.8,0.07603749403,0.004227509512,0.0002719038547,45.62832026
564.8999514,128.9801691,4.417344903,34.1707285,51.84010811,7129,7111,120,28.8,0.8197338354,0.002966929838,0.001635422979,43.37641699
563.8834011,127.3517088,4.456522334,37.76822955,55.59431889,7129,7111,120,28.8,0.4150934423,0.009607099938,0.0005992925748,43.11396159
562.9191683,128.2609717,4.316445215,33.93742541,51.20320627,7129,7111,120,28.8,-2.422635081,0.01359994788,0.01283825751,43.88846252
563.1696136,127.7758115,5.036845531,33.21764847,53.36503059,7129,7111,120,28.8,-1.436584172,0.005344409957,0.005344409957,53.36503059
563.965031,129.3791456,4.98459991,36.45767835,56.39607799,7129,7111,120,28.8,-1.449083637,0.01379301137,0.004722455435,42.58479358
566.2069429,134.4291722,4.814196892,32.8203286,52.07711617,7129,7111,120,28.8,-2.015286385,0.01618491501,0.008028368005,40.38633499
563.8323111,129.9608208,4.806257182,34.44079743,53.66582616,7129,7111,120,28.8,-2.296198611,0.01506195113,0.01122384875,42.71361674
561.8193268,125.5533037,4.809750845,30.29911952,49.5381229,7129,7111,120,28.8,-1.914650085,0.02932982576,0.02932982576,49.5381229
561.7801181,124.3863045,5.059292255,34.12848003,54.36564905,7129,7111,120,28.8,-0.8260681756,0.004939983178,0.004939983178,54.36564905
561.3187528,123.5650783,5.319375056,35.61173102,56.88923125,7129,7111,120,28.8,-0.9275725835,0.003506757711,0.003506757711,56.88923125
563.0141953,127.8031303,5.252486548,33.34214204,54.35208823,7129,7111,120,28.8,-1.77473975,0.007855888103,0.007855888103,54.35208823
561.7362533,125.076879,5.579338117,34.94036008,57.25771254,7129,7111,120,28.8,-1.60437247,0.007289586881,0.007289586881,57.25771254
564.9697225,130.8981176,5.375259736,33.29699191,54.79803086,7129,7111,120,28.8,-0.9586726266,0.003314379093,0.002194511243,45.85141357
566.289566,127.6064316,5.306859453,33.49765925,54.72509706,7129,7111,120,28.8,4.97270052,0.05617147588,0.0552448897,46.90722605
564.2201996,127.7879524,5.484183036,33.52173382,55.45846596,7129,7111,120,28.8,0.6524468418,0.001507866661,0.001507866661,55.45846596
561.5437093,123.6467023,5.006154183,34.71907594,54.74369267,7129,7111,120,28.8,-0.5592836263,0.003707180149,0.003707180149,54.74369267
565.9625497,131.2917253,5.325166789,32.29777261,53.59843977,7129,7111,120,28.8,0.6333741566,0.001200900373,0.00108158758,48.12921122
567.1810967,130.1697537,5.309163716,35.00711144,56.2437663,7129,7111,120,28.8,4.192439663,0.0440531197,0.03654559247,43.61761468
565.9796275,128.3849705,4.629127407,34.27779528,52.79430491,7129,7111,120,28.8,3.574284478,0.02943124755,0.02748316195,44.17482656
565.3192606,129.150519,4.825068838,35.11464279,54.41491814,7129,7111,120,28.8,1.488002216,0.008687132095,0.004926529997,43.30983281
563.7730693,127.3051963,4.947163384,32.21681264,52.00546618,7129,7111,120,28.8,0.2409422656,0.00358509424,0.00358509424,52.00546618
564.8507595,127.947216,4.613192683,34.0178165,52.47058724,7129,7111,120,28.8,1.754303044,0.007314760704,0.00702827011,46.04561737
563.76111,129.6619502,5.073055335,32.37974036,52.6719617,7129,7111,120,28.8,-2.139730213,0.01054256038,0.01053835343,50.52208571
567.7311095,130.8365763,5.808902114,34.06163864,57.2972471,7129,7111,120,28.8,4.625642764,0.05043929656,0.04483756453,44.43459979
565.0462466,129.8504978,5.040842358,37.59551412,57.75888356,7129,7111,120,28.8,0.241995457,0.01634693747,0.0003310550652,42.43509812
563.4063201,124.7020511,4.980409602,37.31708124,57.23871965,7129,7111,120,28.8,2.110589195,0.01219243438,0.01066744991,47.89362256
563.5613697,128.4680834,5.110856151,35.97193419,56.41535879,7129,7111,120,28.8,-1.345343989,0.008643241022,0.004190913629,44.90202026
564.5327429,128.0894092,4.79132993,30.2322322,49.39755192,7129,7111,120,28.8,0.9760765531,0.01292275564,0.01292275564,49.39755192
565.8241892,130.250059,5.059271354,34.63682112,54.87390654,7129,7111,120,28.8,1.398319472,0.0084940302,0.004337533406,43.6751501
564.838263,130.5907394,4.717386374,34.12290026,52.99244576,7129,7111,120,28.8,-0.914213451,0.005489917134,0.001955267195,42.17766091
564.0992586,130.972743,5.476731997,33.22149429,55.12842228,7129,7111,120,28.8,-2.774225809,0.0184255212,0.01660211563,45.0027937
563.8841325,125.2481413,4.961243962,31.89953127,51.74450712,7129,7111,120,28.8,2.520123672,0.02510004934,0.02510004934,51.74450712
564.4826361,127.1031674,5.476829677,33.64580264,55.55312134,7129,7111,120,28.8,1.862104862,0.009052607438,0.009052607438,55.55312134
565.2219856,129.0158019,4.742149403,35.21007215,54.17866976,7129,7111,120,28.8,1.428169265,0.008416906984,0.004552840539,43.12179838
563.4241282,127.9203052,4.803140826,34.63406896,53.84663227,7129,7111,120,28.8,-1.072048821,0.003468072444,0.002769005457,46.15425623
563.4718269,128.0746337,4.829621957,36.72667448,56.0451623,7129,7111,120,28.8,-1.130979907,0.009521569067,0.002978861721,43.46359526
565.1523783,128.5345678,5.480728893,35.67768452,57.60060009,7129,7111,120,28.8,1.770188733,0.01052147068,0.007128937579,45.84537558
566.0133039,133.6772158,5.323363837,33.86371205,55.1571674,7129,7111,120,28.8,-1.650608064,0.01529145558,0.005591575102,41.64928967
568.0201692,132.6394582,4.218315527,32.56226751,49.43552962,7129,7111,120,28.8,3.400880243,0.02734244731,0.02242442158,39.34664603
565.6202583,129.6607823,5.294625686,34.35826934,55.53677209,7129,7111,120,28.8,1.57973442,0.007662069698,0.005619316142,45.33614048
565.2219225,129.1378021,4.968851492,36.55460394,56.43000991,7129,7111,120,28.8,1.306042872,0.01260513409,0.00395682033,42.61041564
561.809422,122.3512569,4.586378955,36.41735562,54.76287144,7129,7111,120,28.8,1.267587039,0.004919253984,0.004919253984,54.76287144
562.8253572,127.4282889,5.149560863,32.677333,53.27557646,7129,7111,120,28.8,-1.777574542,0.009333408822,0.009333408822,53.27557646
561.2917458,125.7180803,4.989316898,35.49364704,55.45091464,7129,7111,120,28.8,-3.134588712,0.023512679,0.02290728389,47.5293554
565.1370546,130.557565,5.419142083,34.53592195,56.21249028,7129,7111,120,28.8,-0.2834557236,0.00396616743,0.0003849529015,44.74055349
564.4569523,127.7667788,5.42335711,33.81713109,55.51055953,7129,7111,120,28.8,1.147125896,0.003372733524,0.003372733524,55.51055953
563.5344666,127.3905959,5.033107651,32.69918358,52.83161418,7129,7111,120,28.8,-0.3216628094,0.002222557092,0.002222557092,52.83161418
564.8845979,130.5700152,5.184977383,32.84905486,53.58896439,7129,7111,120,28.8,-0.8008192636,0.001901778919,0.001607872938,47.02705038
564.840098,128.8970099,4.831727437,38.54177887,57.86868862,7129,7111,120,28.8,0.7831860315,0.01931401906,0.001497330714,42.51577123
566.2407289,128.9275999,5.38365557,33.17545039,54.71007266,7129,7111,120,28.8,3.553857846,0.02887357662,0.02842545108,48.01088009
563.9583685,127.044533,5.024469013,34.59892228,54.69679833,7129,7111,120,28.8,0.8722041347,0.002021759641,0.001970935295,50.23175357
561.8337675,127.2844876,4.909826943,30.06375707,49.70306484,7129,7111,120,28.8,-3.616952711,0.04296754716,0.04296754716,49.70306484
563.7387167,128.9295489,4.71383331,34.06139241,52.91672565,7129,7111,120,28.8,-1.452115575,0.005764036063,0.004772808539,44.27726024
562.9088343,128.6816809,4.300559524,32.36786826,49.57010635,7129,7111,120,28.8,-2.864012355,0.01828856955,0.01828046782,47.54683671
560.480991,122.8956812,5.636353212,32.38682817,54.93224102,7129,7111,120,28.8,-1.93369922,0.02871140151,0.02871140151,54.93224102
563.4426217,129.6285129,5.119648061,33.86053238,54.33912462,7129,7111,120,28.8,-2.743269617,0.0180960043,0.01637241382,44.35846908
564.4940116,127.850468,5.70249605,34.8894127,57.6993969,7129,7111,120,28.8,1.137555189,0.003653721549,0.003208239924,49.45662591
563.182081,128.3108974,5.233335862,34.00785534,54.94119879,7129,7111,120,28.8,-1.946735435,0.009074564615,0.008783396901,48.21370506
564.9963024,130.0800176,5.696342282,30.53416699,53.31953612,7129,7111,120,28.8,-0.08741290097,0.0054420086,0.0054420086,53.31953612
564.5107324,127.2585016,4.859723121,32.91565386,52.35454635,7129,7111,120,28.8,1.762963278,0.008541388058,0.008541388058,52.35454635
562.2877205,127.3352985,5.047581509,39.38092368,59.57124972,7129,7111,120,28.8,-2.759857495,0.03279073873,0.01671555308,43.76663244
564.3222803,130.8625787,4.650663567,33.69054438,52.29319865,7129,7111,120,28.8,-2.218018213,0.01373212273,0.0103234471,41.62111729
564.4340332,130.5110403,4.723907432,36.26949887,55.1651286,7129,7111,120,28.8,-1.642974018,0.01858237668,0.00573482214,41.65530119
564.7070011,130.1616314,4.552894634,31.40051035,49.61208889,7129,7111,120,28.8,-0.7476293208,0.002089009776,0.002089009776,49.61208889
560.8957334,126.2525247,5.299927953,33.2399386,54.43965041,7129,7111,120,28.8,-4.461057805,0.04803860816,0.0479798771,51.10661059
566.469942,129.2032342,5.469198283,32.19773032,54.07452346,7129,7111,120,28.8,3.736649775,0.03238517896,0.03231874509,49.66027664
566.2444183,130.1731225,4.701457393,32.59340615,51.39923572,7129,7111,120,28.8,2.315714055,0.01199817421,0.01164027003,45.10545176
562.2614618,127.7257703,5.58829398,30,52.35317592,7129,7111,120,28.8,-3.202846699,0.03898938327,0.03898938327,52.35317592
562.3469256,125.2329815,4.909165163,34.83224835,54.468909,7129,7111,120,28.8,-0.539130328,0.001270506184,0.001270506184,54.468909
564.1256987,128.6786214,5.454754528,30.22124766,52.04026577,7129,7111,120,28.8,-0.4272240293,0.01125289705,0.01125289705,52.04026577
563.2852099,127.9995887,5.053005374,34.94151968,55.15354117,7129,7111,120,28.8,-1.429168823,0.005942396658,0.004756078497,46.14888139
562.2192649,125.7204278,5.317034689,35.19811254,56.46625129,7129,7111,120,28.8,-1.281897993,0.004220977086,0.004220977086,56.46625129
565.1895804,126.2993789,5.923671059,31.57507504,55.26975928,7129,7111,120,28.8,4.079781919,0.04979730087,0.04979730087,55.26975928
566.8862381,128.7544874,5.313559452,34.94212029,56.19635809,7129,7111,120,28.8,5.017988871,0.05855783671,0.05327910896,43.58084913
563.1987347,127.4798579,4.914994119,33.39854118,53.05851765,7129,7111,120,28.8,-1.082388572,0.003242856829,0.003242856829,53.05851765
564.5329818,129.8622709,4.823539395,32.09567863,51.38983621,7129,7111,120,28.8,-0.7963073054,0.001785372054,0.001785372054,51.38983621
563.043891,127.8760253,4.927699933,36.58363111,56.29443084,7129,7111,120,28.8,-1.788243347,0.01282424019,0.00722128124,43.65690555
564.9621314,128.9148122,5.14243636,34.61835146,55.1880969,7129,7111,120,28.8,1.00945059,0.00396212646,0.002461284344,45.05150767
563.5330335,127.6816794,5.303646804,32.33152038,53.5461076,7129,7111,120,28.8,-0.6156124318,0.003752074838,0.003752074838,53.5461076
565.7099813,131.3518065,4.700519844,33.52170784,52.32378722,7129,7111,120,28.8,0.06815612537,0.003273096388,0.0002812864152,42.71329569
563.3139685,126.307524,4.712862782,36.7842624,55.63571353,7129,7111,120,28.8,0.3204129981,0.003104533281,0.0004467895078,45.416909
560.7504293,126.0459025,4.707600603,30.48295765,49.31336007,7129,7111,120,28.8,-4.545043861,0.05986032014,0.05986032014,49.31336007
565.0093219,127.9003279,5.25910392,31.82482099,52.86123667,7129,7111,120,28.8,2.118315957,0.01420666706,0.01420666706,52.86123667
564.8258144,126.0943618,5.127404563,34.50823739,55.01785564,7129,7111,120,28.8,3.557267071,0.02998874099,0.02978377611,49.40378874
567.7728193,130.6401564,5.518629311,34.77883051,56.85334775,7129,7111,120,28.8,4.905482251,0.05797901498,0.04934635842,42.93007892
565.06044,128.8867204,4.754920601,32.38256105,51.40224346,7129,7111,120,28.8,1.234159582,0.004036643619,0.004036643619,51.40224346
563.1183501,128.1311227,4.975415032,34.69224608,54.59390621,7129,7111,120,28.8,-1.894422459,0.009286826093,0.008140676568,45.6806154
566.0752467,133.8525933,4.951284427,34.17139422,53.97653193,7129,7111,120,28.8,-1.702099989,0.01888227415,0.005913581947,40.75778942
565.5933625,129.0932763,4.803806599,32.85729594,52.07252234,7129,7111,120,28.8,2.093448663,0.009983556838,0.009937181952,47.82170419
561.0229072,123.8982235,5.214576334,34.59129408,55.44959942,7129,7111,120,28.8,-1.852408994,0.01140722995,0.01140722995,55.44959942
562.35794,125.461415,5.012589179,35.50735786,55.55771458,7129,7111,120,28.8,-0.745534953,0.001544622635,0.001536593509,52.15622185
563.007817,126.5165141,4.272626107,32.1972284,49.28773282,7129,7111,120,28.8,-0.5008801153,0.004745052224,0.004745052224,49.28773282
563.8340039,132.0442891,4.864878979,34.93839646,54.39791237,7129,7111,120,28.8,-4.376281345,0.05159092894,0.03756503359,41.07597465
562.7239059,127.0641269,4.975568587,34.4900692,54.39234355,7129,7111,120,28.8,-1.616315047,0.006327057284,0.006233395073,48.84210441
562.0196411,127.7947065,4.941038549,32.78977462,52.55392881,7129,7111,120,28.8,-3.755424242,0.03254900077,0.03249841514,49.33634134
563.5423049,126.6306603,5.2562915,36.29355467,57.31872067,7129,7111,120,28.8,0.4539495267,0.002218346599,0.0006877662905,46.79079238
564.3034865,126.7589674,5.469491013,36.77327585,58.6512399,7129,7111,120,28.8,1.848005553,0.01101681976,0.007998106271,46.68159911
565.5915274,131.4744198,4.930347234,36.15010156,55.87149049,7129,7111,120,28.8,-0.2913650118,0.0152492093,0.0004742528899,41.048442
562.5012737,124.5836892,4.787776403,33.7624219,52.91352751,7129,7111,120,28.8,0.4188580945,0.00409273702,0.00409273702,52.91352751
560.9325626,123.6462139,4.991802428,36.27690635,56.24411606,7129,7111,120,28.8,-1.781088612,0.008158683509,0.008158683509,56.24411606
565.1572068,130.4750665,4.924284657,32.83864163,52.53578025,7129,7111,120,28.8,-0.16065295,0.0005717809509,0.0002660488319,46.10282757
564.2553676,129.0058912,5.242353816,38.00337361,58.97278887,7129,7111,120,28.8,-0.495156001,0.014974181,0.0007698578128,43.32694693
562.4621768,127.9190626,4.655659823,31.58370512,50.20634441,7129,7111,120,28.8,-2.994708948,0.02334016178,0.02334016178,50.20634441
563.8088836,125.0072258,5.090663829,31.45965114,51.82230645,7129,7111,120,28.8,2.610541447,0.03044895801,0.03044895801,51.82230645
566.0774151,129.6340804,4.856050177,33.14801832,52.57221903,7129,7111,120,28.8,2.520749748,0.01450703892,0.01388228831,45.06190203
563.8628844,127.1565557,5.25598806,36.86443368,57.88838592,7129,7111,120,28.8,0.5692130205,0.00482570251,0.0009445067765,46.07442961
566.7010016,131.0311955,5.544768573,35.82277558,58.00184987,7129,7111,120,28.8,2.370807696,0.0227871005,0.01195779644,43.79731521
561.9554025,124.1727335,5.125568205,33.73374747,54.23602029,7129,7111,120,28.8,-0.261928459,0.005480606027,0.005480606027,54.23602029
564.7788621,130.2781521,4.629701188,37.388598,55.90740275,7129,7111,120,28.8,-0.7204279444,0.01918192717,0.001278252578,41.07482651
565.0517592,129.6650108,5.370683637,36.62506848,58.10780303,7129,7111,120,28.8,0.4385075684,0.01019435552,0.0006111404207,43.87732065
561.9686333,128.8525895,4.72976422,33.58684174,52.50589862,7129,7111,120,28.8,-4.915322838,0.05304527149,0.05056793785,42.86195806
562.9684263,125.5394978,5.476880853,33.53018883,55.43771224,7129,7111,120,28.8,0.3973548678,0.003860468652,0.003860468652,55.43771224
564.609494,125.1629183,4.819424958,32.03407015,51.31176998,7129,7111,120,28.8,4.056069622,0.04609999027,0.04609999027,51.31176998
564.7227791,128.5941931,4.717979964,36.08090715,54.95282701,7129,7111,120,28.8,0.8513651632,0.007401673916,0.001863316114,42.61647809
562.4678998,126.7817014,5.071436347,36.04153795,56.32728334,7129,7111,120,28.8,-1.845901831,0.009743031551,0.007915252338,45.98145579
563.5383112,126.4153713,4.962603344,40,59.85041338,7129,7111,120,28.8,0.661251112,0.01563917727,0.001300143312,43.97173228
564.498472,126.2286008,4.979061485,34.24647599,54.16272193,7129,7111,120,28.8,2.768343201,0.01838963157,0.01837402904,50.84663691
565.796072,129.8041628,5.506806256,35.15730347,57.1845285,7129,7111,120,28.8,1.787981133,0.01149015467,0.007171217349,44.34718536
562.7118584,126.499009,5.203861276,35.66179974,56.47724485,7129,7111,120,28.8,-1.075292208,0.003442860654,0.0028901515,48.40906701
566.1659941,131.4951274,5.424067306,37.53354207,59.22981129,7129,7111,120,28.8,0.8368609108,0.02340425384,0.001642945819,42.30700807
562.720442,128.4120014,4.528289165,31.62439426,49.73755093,7129,7111,120,28.8,-2.971117303,0.0216167484,0.0216167484,49.73755093
565.1420794,131.978976,5.492736626,35.67146382,57.64241033,7129,7111,120,28.8,-1.69481719,0.01912098913,0.006121927077,42.34952596
567.1471802,132.2881728,4.959051896,34.0999391,53.93614668,7129,7111,120,28.8,2.006187639,0.01602397886,0.008300247432,41.82803212
564.2817206,128.2129193,4.787702532,34.4347434,53.58555353,7129,7111,120,28.8,0.3505219038,0.001090928554,0.0004772158935,45.93047446
564.3095118,132.0233002,5.103395256,32.68609439,53.09967541,7129,7111,120,28.8,-3.404276622,0.02675162317,0.02380706764,42.26300696
565.0736521,128.4675927,4.976955928,36.04597384,55.95379755,7129,7111,120,28.8,1.67971155,0.01142531521,0.006394221871,44.53465519
563.1196899,124.0254015,4.758748303,35.74481614,54.77980935,7129,7111,120,28.8,2.213978225,0.01227575328,0.01227572526,53.66185406
